Nb Mo Ta Ti  V                          
   1.00000000000000     
    -3.1659518351871418   -3.1086550373858119   -3.1418137907144299
     1.5634513516590838    1.6194209183482657   -7.8999678521141909
     7.9225620218692505   -7.8423883964622298   -1.5078101670891402
   Nb   Mo   Ta   Ti   V 
     6     6     6     6     5
Direct
  0.9599555118705093  0.9326416089864721  0.3964328611952279
  0.6278829945045080  0.2666154271280707  0.4031413421387409
  0.5091496860348593  0.0078009607536023 -0.0053310690195431
  0.0074624561149247 -0.0057566026975648  0.0002264130817110
  0.0990297850040116  0.2027173867054527  0.7977525172887296
  0.0428559994180685  0.0699658212776264  0.5972906053341186
  0.8984687908238946  0.7959245400896391  0.2023918731794611
  0.8036732465302133  0.5921428758038242  0.3987573527573114
  0.7332539211124564  0.4652348128844709  0.1974006831064456
  0.6560604875126299  0.3554402861868783 -0.0070049288105462
  0.3724841871009246  0.7210249358786412  0.6050854534306382
  0.1300392239588593  0.2724681334390192  0.4022740217385748
  0.8405992844900496  0.6635974661951014  0.0007385775610680
  0.9118927803117327  0.8756573223517665  0.7912246101732945
  0.5616538996154817  0.1397049573474139  0.1943232266744380
  0.4047211376272878  0.7859187564454000  0.1882398831328042
  0.4357228094985796  0.8468908806681261  0.8041868157758968
  0.3008238809389842  0.6011862400543506  0.4026154619698213
  0.8572955391095509  0.7260711477961566  0.5978396339610810
  0.4638787833977625  0.9287732170429825  0.4075812225017750
  0.1618921935635430  0.3318528171167002  0.0004301959032848
  0.2825707550244949  0.5354357153713930  0.8060874260932910
  0.2026898864286393  0.3920318907801111  0.6012686015964368
  0.0601692591403962  0.1463496403223760  0.2054579712823233
  0.7879085089522957  0.5175064775040789  0.7994065869355438
  0.6862828276858560  0.4100881430747906  0.6091337614243152
  0.5967049207701032  0.2127175697608603  0.7955387206498855
  0.5474910735965265  0.0684876084679983  0.6103468113670305
  0.2240528398628695  0.4748432932642573  0.1971633675768411
 
  0.00000000E+00  0.00000000E+00  0.00000000E+00
  0.00000000E+00  0.00000000E+00  0.00000000E+00
  0.00000000E+00  0.00000000E+00  0.00000000E+00
  0.00000000E+00  0.00000000E+00  0.00000000E+00
  0.00000000E+00  0.00000000E+00  0.00000000E+00
  0.00000000E+00  0.00000000E+00  0.00000000E+00
  0.00000000E+00  0.00000000E+00  0.00000000E+00
  0.00000000E+00  0.00000000E+00  0.00000000E+00
  0.00000000E+00  0.00000000E+00  0.00000000E+00
  0.00000000E+00  0.00000000E+00  0.00000000E+00
  0.00000000E+00  0.00000000E+00  0.00000000E+00
  0.00000000E+00  0.00000000E+00  0.00000000E+00
  0.00000000E+00  0.00000000E+00  0.00000000E+00
  0.00000000E+00  0.00000000E+00  0.00000000E+00
  0.00000000E+00  0.00000000E+00  0.00000000E+00
  0.00000000E+00  0.00000000E+00  0.00000000E+00
  0.00000000E+00  0.00000000E+00  0.00000000E+00
  0.00000000E+00  0.00000000E+00  0.00000000E+00
  0.00000000E+00  0.00000000E+00  0.00000000E+00
  0.00000000E+00  0.00000000E+00  0.00000000E+00
  0.00000000E+00  0.00000000E+00  0.00000000E+00
  0.00000000E+00  0.00000000E+00  0.00000000E+00
  0.00000000E+00  0.00000000E+00  0.00000000E+00
  0.00000000E+00  0.00000000E+00  0.00000000E+00
  0.00000000E+00  0.00000000E+00  0.00000000E+00
  0.00000000E+00  0.00000000E+00  0.00000000E+00
  0.00000000E+00  0.00000000E+00  0.00000000E+00
  0.00000000E+00  0.00000000E+00  0.00000000E+00
  0.00000000E+00  0.00000000E+00  0.00000000E+00
