Nb Mo Ta Ti  V                          
   1.00000000000000     
    -3.1019530921590750   -3.1217895851735755   -3.1100443158095010
     1.5904636032482513    1.6038717358444199   -7.8581023757698345
     7.9436028065369264   -7.9840845179740194   -1.5656694008554448
   Nb   Mo   Ta   Ti   V 
     6     5     6     6     6
Direct
  0.9551548597925111  0.9357319174840008  0.3958793412401621
  0.6267689088801801  0.2684973664593673  0.4024862196209532
  0.4900846570568098 -0.0025314352245509 -0.0037029156259669
 -0.0248619839214456  0.0144473650065639  0.0017048184994473
  0.0907658335773008  0.2158645172058866  0.8062816716206151
  0.0286227179888447  0.0708159911793293  0.5995864944951133
  0.9055676818787011  0.7939657385002915  0.1985478350909541
  0.8039507523813915  0.5922949084447890  0.4001417133091146
  0.7167314009270919  0.4655565382034481  0.1942980267700393
  0.3629669638918183  0.7259556958946926  0.6024532602578907
  0.1264644127646083  0.2739634120258970  0.3988366790491619
  0.8523583177165608  0.6430711390720423  0.0012638913150159
  0.9183595289137590  0.8736691100355877  0.8034586164286185
  0.5787730047521450  0.1314052005799795  0.2009503349767882
  0.4074425937838304  0.7912063756709992  0.1963632886262621
  0.4298185565581288  0.8547402774302094  0.7985163376928394
  0.2970972439374510  0.6017445064618294  0.4045903213570677
  0.8513596235332153  0.7280034123238214  0.6016565962143493
  0.4627593767750537  0.9267431589128103  0.4107817944834015
  0.3436795906930418  0.3454446795333050 -0.0026796114118578
  0.2431701006483800  0.5391139597972157  0.7904749933934782
  0.1920648803469081  0.3863291260369615  0.6000326185815532
  0.0750652142568660  0.1561932189539351  0.1951277647619973
  0.7268968099762823  0.5148136090204596  0.8064704558571216
  0.6809541972672177  0.4072826504151412  0.6063950991665269
  0.5921095754019053  0.2095900190867096  0.7820984074944212
  0.5410263212327726  0.0662955878477863  0.6100161229966674
  0.3403597319038518  0.6606431039948084 -0.0045281222768161
  0.2178224570848347  0.4758155196466734  0.2024979460150812
 
  0.00000000E+00  0.00000000E+00  0.00000000E+00
  0.00000000E+00  0.00000000E+00  0.00000000E+00
  0.00000000E+00  0.00000000E+00  0.00000000E+00
  0.00000000E+00  0.00000000E+00  0.00000000E+00
  0.00000000E+00  0.00000000E+00  0.00000000E+00
  0.00000000E+00  0.00000000E+00  0.00000000E+00
  0.00000000E+00  0.00000000E+00  0.00000000E+00
  0.00000000E+00  0.00000000E+00  0.00000000E+00
  0.00000000E+00  0.00000000E+00  0.00000000E+00
  0.00000000E+00  0.00000000E+00  0.00000000E+00
  0.00000000E+00  0.00000000E+00  0.00000000E+00
  0.00000000E+00  0.00000000E+00  0.00000000E+00
  0.00000000E+00  0.00000000E+00  0.00000000E+00
  0.00000000E+00  0.00000000E+00  0.00000000E+00
  0.00000000E+00  0.00000000E+00  0.00000000E+00
  0.00000000E+00  0.00000000E+00  0.00000000E+00
  0.00000000E+00  0.00000000E+00  0.00000000E+00
  0.00000000E+00  0.00000000E+00  0.00000000E+00
  0.00000000E+00  0.00000000E+00  0.00000000E+00
  0.00000000E+00  0.00000000E+00  0.00000000E+00
  0.00000000E+00  0.00000000E+00  0.00000000E+00
  0.00000000E+00  0.00000000E+00  0.00000000E+00
  0.00000000E+00  0.00000000E+00  0.00000000E+00
  0.00000000E+00  0.00000000E+00  0.00000000E+00
  0.00000000E+00  0.00000000E+00  0.00000000E+00
  0.00000000E+00  0.00000000E+00  0.00000000E+00
  0.00000000E+00  0.00000000E+00  0.00000000E+00
  0.00000000E+00  0.00000000E+00  0.00000000E+00
  0.00000000E+00  0.00000000E+00  0.00000000E+00
