Nb Mo Ta Ti  V                          
   1.00000000000000     
    -3.1509586324078001   -3.2212869027523516   -3.1957634026521871
     1.6002274623677692    1.4132088569457810   -7.8170622215169274
     7.8583780835783461   -7.8751488115149035   -1.7535645433209570
   Nb   Mo   Ta   Ti   V 
     6     6     6     5     6
Direct
  0.9681700999268705  0.9414108333746185  0.3922998126057818
  0.6340041217983150  0.2711134885155576  0.4026014318277489
  0.4876589900265774  0.0204435599565836 -0.0122863619726728
 -0.0102699751807434 -0.0041192969264150 -0.0014468654408955
  0.0897836042821043  0.2057919328966554  0.8068693930942643
  0.0420426000580512  0.0674676740352631  0.5951050956061189
  0.9073205454117645  0.8006574010544184  0.1996106781722104
  0.8103659083412665  0.5975758242305756  0.4033503732205937
  0.7251088797229785  0.4755501880865894  0.2038410071520899
  0.6407198137723634  0.3479647414170264 -0.0058149083632307
  0.3662265346188361  0.7210950851291136  0.6062833999572118
  0.1366991938932353  0.2798643289544382  0.3956464263290118
  0.8555440142577645  0.6329571698903325  0.0056834144690060
  0.9275260413829793  0.8569878441154600  0.8011014509896783
  0.5771874085877036  0.1398039671496302  0.1964045265940643
  0.4085674487039934  0.8034330083701786  0.1924730127383525
  0.4360055216903400  0.8511170265682171  0.7995628437479105
  0.3017916980242524  0.6066747626957022  0.4075342131480285
  0.8542733674042520  0.7269757930752380  0.6018628310546718
  0.4725861746697615  0.9319445238073362  0.4077865868123520
  0.2655375733059782  0.5062752233228149  0.8174709176053608
  0.2027748699941519  0.3872396334852858  0.6067395989092703
  0.0695335345777501  0.1791373248912697  0.1727024125055122
  0.7454307974496346  0.5183616081853925  0.8052547027554707
  0.6922132402454603  0.4043426167557392  0.6083562598477398
  0.6049120362884249  0.1972823569235602  0.7823567824884048
  0.5480931065164327  0.0645967936007761  0.6064867257194934
  0.3422708988548352  0.6561765334266453  0.0030973247079659
  0.2312552813746832  0.4785447230119866  0.1990669137184848
 
  0.00000000E+00  0.00000000E+00  0.00000000E+00
  0.00000000E+00  0.00000000E+00  0.00000000E+00
  0.00000000E+00  0.00000000E+00  0.00000000E+00
  0.00000000E+00  0.00000000E+00  0.00000000E+00
  0.00000000E+00  0.00000000E+00  0.00000000E+00
  0.00000000E+00  0.00000000E+00  0.00000000E+00
  0.00000000E+00  0.00000000E+00  0.00000000E+00
  0.00000000E+00  0.00000000E+00  0.00000000E+00
  0.00000000E+00  0.00000000E+00  0.00000000E+00
  0.00000000E+00  0.00000000E+00  0.00000000E+00
  0.00000000E+00  0.00000000E+00  0.00000000E+00
  0.00000000E+00  0.00000000E+00  0.00000000E+00
  0.00000000E+00  0.00000000E+00  0.00000000E+00
  0.00000000E+00  0.00000000E+00  0.00000000E+00
  0.00000000E+00  0.00000000E+00  0.00000000E+00
  0.00000000E+00  0.00000000E+00  0.00000000E+00
  0.00000000E+00  0.00000000E+00  0.00000000E+00
  0.00000000E+00  0.00000000E+00  0.00000000E+00
  0.00000000E+00  0.00000000E+00  0.00000000E+00
  0.00000000E+00  0.00000000E+00  0.00000000E+00
  0.00000000E+00  0.00000000E+00  0.00000000E+00
  0.00000000E+00  0.00000000E+00  0.00000000E+00
  0.00000000E+00  0.00000000E+00  0.00000000E+00
  0.00000000E+00  0.00000000E+00  0.00000000E+00
  0.00000000E+00  0.00000000E+00  0.00000000E+00
  0.00000000E+00  0.00000000E+00  0.00000000E+00
  0.00000000E+00  0.00000000E+00  0.00000000E+00
  0.00000000E+00  0.00000000E+00  0.00000000E+00
  0.00000000E+00  0.00000000E+00  0.00000000E+00
