Nb Mo Ta Ti  V                          
   1.00000000000000     
    -3.1528095013435951   -3.1974455048949340   -3.1724965039335493
     1.6191665272213753    1.4323187927742445   -7.8088700297938738
     7.9012512556521068   -7.8556633759710133   -1.7405053516903766
   Nb   Mo   Ta   Ti   V 
     6     6     6     5     6
Direct
  0.9611737261384465  0.9259053582860326  0.4013897831411927
  0.6366525267388694  0.2586514647691245  0.4001557306300316
  0.4974506601895626  0.0069045441506616 -0.0085177439972164
  0.0012923292609858  0.0069482340216516 -0.0014927410038222
  0.1096218360421281  0.2353973200003011  0.7708386659817259
  0.0339085429498490  0.0698577966509061  0.5945142747921739
  0.9055565168998012  0.7916598439620899  0.2057274408022202
  0.7974337494346291  0.5878090251446756  0.4032624308350234
  0.7268185811452565  0.4656527011376296  0.2019522939634023
  0.6646160892363721  0.3435500552594473 -0.0070277214633286
  0.3791344446728280  0.7277925259489163  0.6053583260407083
  0.1338764074653277  0.2753537821616990  0.4011178334672622
  0.8331592350377068  0.6664730417594988  0.0047916943996654
  0.9298888994938729  0.8743545618342347  0.7970429795613913
  0.5614475074405464  0.1341400702131948  0.1934771523380314
  0.4027718143360327  0.7891695882926716  0.1995640057844854
  0.4392949122977958  0.8644296897522016  0.7946955693991893
  0.2966984632744895  0.5837604178239063  0.4200344029529302
  0.8774046093800540  0.7033116543328130  0.6064958847428785
  0.4622885043388019  0.9239200481386058  0.4104956936065428
  0.1731762317149652  0.3400786017254641 -0.0055503233864604
  0.2704175288774527  0.5343435633745299  0.7890802273897082
  0.0615709585941429  0.1444284292336936  0.2020515328905664
  0.7520187571451264  0.5274322605232658  0.8120265883198020
  0.6809221398965363  0.4049693213291776  0.6074144456528369
  0.6169380338960465  0.2064961704330266  0.7946476532599026
  0.5354587169927220  0.0859192054225723  0.6051563917991638
  0.3375618228870091  0.6515035446255830 -0.0011702105586512
  0.2214464542226545  0.4697871796924199  0.2024677386586428
 
  0.00000000E+00  0.00000000E+00  0.00000000E+00
  0.00000000E+00  0.00000000E+00  0.00000000E+00
  0.00000000E+00  0.00000000E+00  0.00000000E+00
  0.00000000E+00  0.00000000E+00  0.00000000E+00
  0.00000000E+00  0.00000000E+00  0.00000000E+00
  0.00000000E+00  0.00000000E+00  0.00000000E+00
  0.00000000E+00  0.00000000E+00  0.00000000E+00
  0.00000000E+00  0.00000000E+00  0.00000000E+00
  0.00000000E+00  0.00000000E+00  0.00000000E+00
  0.00000000E+00  0.00000000E+00  0.00000000E+00
  0.00000000E+00  0.00000000E+00  0.00000000E+00
  0.00000000E+00  0.00000000E+00  0.00000000E+00
  0.00000000E+00  0.00000000E+00  0.00000000E+00
  0.00000000E+00  0.00000000E+00  0.00000000E+00
  0.00000000E+00  0.00000000E+00  0.00000000E+00
  0.00000000E+00  0.00000000E+00  0.00000000E+00
  0.00000000E+00  0.00000000E+00  0.00000000E+00
  0.00000000E+00  0.00000000E+00  0.00000000E+00
  0.00000000E+00  0.00000000E+00  0.00000000E+00
  0.00000000E+00  0.00000000E+00  0.00000000E+00
  0.00000000E+00  0.00000000E+00  0.00000000E+00
  0.00000000E+00  0.00000000E+00  0.00000000E+00
  0.00000000E+00  0.00000000E+00  0.00000000E+00
  0.00000000E+00  0.00000000E+00  0.00000000E+00
  0.00000000E+00  0.00000000E+00  0.00000000E+00
  0.00000000E+00  0.00000000E+00  0.00000000E+00
  0.00000000E+00  0.00000000E+00  0.00000000E+00
  0.00000000E+00  0.00000000E+00  0.00000000E+00
  0.00000000E+00  0.00000000E+00  0.00000000E+00
