Nb - Mo - Ta - Ti - V SQS-30 BCC        
   3.16000000000000     
    -0.9992933306015293   -0.9954859435137996   -1.0032965420721369
     0.4976982626126779    0.4934193854658716   -2.5020370686606102
     2.5184253363889835   -2.5079498817885040   -0.5025950860780277
   Nb   Mo   Ta   Ti   V 
     6     6     6     6     6
Direct
  0.9555689538280354  0.9343013670235407  0.3973603494076669
  0.6307148154533809  0.2671662818743146  0.4027010602105390
  0.4997323479012801  0.0021223514215259 -0.0058129334152451
 -0.0024895715714785  0.0041069537336611  0.0015633183207091
  0.0983953936860510  0.2072330072665902  0.7957658459339552
  0.0381433998370038  0.0702225576143331  0.5966652093519320
  0.9057156768136277  0.7964072274758413  0.2014970140833021
  0.8069938642408502  0.5922240662194409  0.3996438267749360
  0.7308182444653277  0.4683886639768801  0.1991555476753736
  0.6613086776708207  0.3455829774722182 -0.0054725058510904
  0.3719928940112959  0.7231220896470221  0.6028655028064188
  0.1306564393538709  0.2738202946678152  0.4006410965114483
  0.8371609700921264  0.6637906705710794  0.0020836681347309
  0.9226243390537522  0.8736775630978288  0.7970458012167995
  0.5642362677346803  0.1372025733905772  0.1944171769235584
  0.4066183728141841  0.7916711331020532  0.1973409744498509
  0.4374935430057265  0.8547016592979781  0.7970864756897645
  0.3011534604776689  0.6015062564260897  0.4049216693870533
  0.8582006064534513  0.7268283976547962  0.5994727433116859
  0.4642351497686889  0.9282017290290063  0.4091204662742016
  0.1754008544777763  0.3394229115169095 -0.0000870215348694
  0.2742229218891694  0.5319365743190750  0.7943926996593996
  0.2018127416978088  0.3877847164007088  0.5965679860777885
  0.0620828013876938  0.1496283397844234  0.2070581258307249
  0.7653984980618328  0.5196469869993247  0.8066097140136604
  0.6852362884452839  0.4103299598870164  0.6075343345622826
  0.5975431701632962  0.2079753248567101  0.7927966091378513
  0.5495753524774174  0.0688882415234744  0.6093726089918408
  0.3417292924816565  0.6486064978006941 -0.0017552312712476
  0.2277242338277205  0.4735026259490576  0.1994478673349787
 
  0.00000000E+00  0.00000000E+00  0.00000000E+00
  0.00000000E+00  0.00000000E+00  0.00000000E+00
  0.00000000E+00  0.00000000E+00  0.00000000E+00
  0.00000000E+00  0.00000000E+00  0.00000000E+00
  0.00000000E+00  0.00000000E+00  0.00000000E+00
  0.00000000E+00  0.00000000E+00  0.00000000E+00
  0.00000000E+00  0.00000000E+00  0.00000000E+00
  0.00000000E+00  0.00000000E+00  0.00000000E+00
  0.00000000E+00  0.00000000E+00  0.00000000E+00
  0.00000000E+00  0.00000000E+00  0.00000000E+00
  0.00000000E+00  0.00000000E+00  0.00000000E+00
  0.00000000E+00  0.00000000E+00  0.00000000E+00
  0.00000000E+00  0.00000000E+00  0.00000000E+00
  0.00000000E+00  0.00000000E+00  0.00000000E+00
  0.00000000E+00  0.00000000E+00  0.00000000E+00
  0.00000000E+00  0.00000000E+00  0.00000000E+00
  0.00000000E+00  0.00000000E+00  0.00000000E+00
  0.00000000E+00  0.00000000E+00  0.00000000E+00
  0.00000000E+00  0.00000000E+00  0.00000000E+00
  0.00000000E+00  0.00000000E+00  0.00000000E+00
  0.00000000E+00  0.00000000E+00  0.00000000E+00
  0.00000000E+00  0.00000000E+00  0.00000000E+00
  0.00000000E+00  0.00000000E+00  0.00000000E+00
  0.00000000E+00  0.00000000E+00  0.00000000E+00
  0.00000000E+00  0.00000000E+00  0.00000000E+00
  0.00000000E+00  0.00000000E+00  0.00000000E+00
  0.00000000E+00  0.00000000E+00  0.00000000E+00
  0.00000000E+00  0.00000000E+00  0.00000000E+00
  0.00000000E+00  0.00000000E+00  0.00000000E+00
  0.00000000E+00  0.00000000E+00  0.00000000E+00
