Nb Mo Ta Ti  V                          
   1.00000000000000     
    -3.1213713178753539   -3.1087516375419129   -3.1546856878395850
     1.5868159588162594    1.4933892310737620   -7.8532038305358167
     7.9872483516390416   -7.8869159209997548   -1.6444764805547427
   Nb   Mo   Ta   Ti   V 
     6     6     6     6     5
Direct
  0.9616337009737309  0.9343469192479523  0.3973610203935038
  0.6306138610209523  0.2666122045834257  0.4054383023026363
  0.5114912375338431  0.0265496461526763 -0.0299385837226349
  0.0108779914824172  0.0043755768728338  0.0027839692423888
  0.0216662271940563  0.2040671492562174  0.7959960434935494
  0.0501826489883872  0.0605873620666275  0.5926685895332954
  0.9075179745622689  0.8032392324854459  0.1989301471103494
  0.8053011164171422  0.5962856245371126  0.3997312971899034
  0.7292737740539873  0.4746314379756578  0.1998348653048930
  0.6591361507659784  0.3554656463198984 -0.0003764514319524
  0.3741052812575484  0.7121827671921879  0.6053371039567929
  0.1311868284910267  0.2755500619790888  0.3993006489348555
  0.8318503630687509  0.6732625643641978  0.0018534649235576
  0.9267107946893682  0.8603583268277911  0.7962333889292921
  0.5632223265099456  0.1419791182939304  0.1942556108494793
  0.4120029784820339  0.7965469851461002  0.1944626052968091
  0.4286636501130648  0.8474055841885758  0.7953627546852473
  0.3033103911499946  0.6008436524749131  0.4061131082289622
  0.8571219843958268  0.7247392484876221  0.5992043450874996
  0.4684314996860120  0.9303139749618825  0.4067756631031547
  0.1657751743238677  0.3459059361447731  0.0055114111521447
  0.3211283521415028  0.4794290464171141  0.7987286754236741
  0.1830424824729468  0.3872502716317192  0.5961031118623544
  0.0618350502616096  0.1529322566325196  0.2071991648594552
  0.7815163934473187  0.5256761635477299  0.8075500578153043
  0.6839026983108811  0.4091492964802022  0.6050450541886130
  0.5480159588438257  0.0771751040561078  0.6215303592655690
  0.3420872334710882  0.6531973983139769 -0.0029136165165513
  0.2283958758906346  0.4799414433617089  0.1999178885378566
 
  0.00000000E+00  0.00000000E+00  0.00000000E+00
  0.00000000E+00  0.00000000E+00  0.00000000E+00
  0.00000000E+00  0.00000000E+00  0.00000000E+00
  0.00000000E+00  0.00000000E+00  0.00000000E+00
  0.00000000E+00  0.00000000E+00  0.00000000E+00
  0.00000000E+00  0.00000000E+00  0.00000000E+00
  0.00000000E+00  0.00000000E+00  0.00000000E+00
  0.00000000E+00  0.00000000E+00  0.00000000E+00
  0.00000000E+00  0.00000000E+00  0.00000000E+00
  0.00000000E+00  0.00000000E+00  0.00000000E+00
  0.00000000E+00  0.00000000E+00  0.00000000E+00
  0.00000000E+00  0.00000000E+00  0.00000000E+00
  0.00000000E+00  0.00000000E+00  0.00000000E+00
  0.00000000E+00  0.00000000E+00  0.00000000E+00
  0.00000000E+00  0.00000000E+00  0.00000000E+00
  0.00000000E+00  0.00000000E+00  0.00000000E+00
  0.00000000E+00  0.00000000E+00  0.00000000E+00
  0.00000000E+00  0.00000000E+00  0.00000000E+00
  0.00000000E+00  0.00000000E+00  0.00000000E+00
  0.00000000E+00  0.00000000E+00  0.00000000E+00
  0.00000000E+00  0.00000000E+00  0.00000000E+00
  0.00000000E+00  0.00000000E+00  0.00000000E+00
  0.00000000E+00  0.00000000E+00  0.00000000E+00
  0.00000000E+00  0.00000000E+00  0.00000000E+00
  0.00000000E+00  0.00000000E+00  0.00000000E+00
  0.00000000E+00  0.00000000E+00  0.00000000E+00
  0.00000000E+00  0.00000000E+00  0.00000000E+00
  0.00000000E+00  0.00000000E+00  0.00000000E+00
  0.00000000E+00  0.00000000E+00  0.00000000E+00
