Nb Mo Ta Ti  V                          
   1.00000000000000     
    -3.1652218052266279   -3.1531690305672422   -3.1710475949050640
     1.5560370097243281    1.5490750594350047   -7.8739081124565526
     7.8395582880566828   -7.8170482645402410   -1.5768177934480121
   Nb   Mo   Ta   Ti   V 
     6     5     6     6     6
Direct
  0.9426143915204076  0.9333085669778084  0.4041419655197971
  0.6347792867460790  0.2706016254118403  0.4054458735257268
  0.5037765819168760  0.0033654562318834 -0.0055660470700539
  0.0039714267409855  0.0025254438560794  0.0002309443297102
  0.0984141808350179  0.1992300084286849  0.7931411199730544
  0.0648045754617825  0.0449797185955358  0.5990885149085293
  0.9130476379184628  0.7982109888211754  0.2039028887149704
  0.8191774718341897  0.5920599634402832  0.3992451537921471
  0.7332095767776374  0.4709643165694662  0.2011851734396455
  0.6636564052417951  0.3456212357536373 -0.0070953855040114
  0.1376644593702153  0.2724922833319154  0.4023804046307092
  0.8398535089524888  0.6637675841027530  0.0035714108598895
  0.9198982706088512  0.8580960995272577  0.7957195043050738
  0.5684457144977613  0.1426336971135160  0.1945503684759930
  0.4103446417801393  0.7928808065569983  0.2031699510266534
  0.4326137933721327  0.8501299999237811  0.7986294660774013
  0.3135166560693715  0.6111730702133767  0.4261163414328364
  0.7540336527296636  0.7223293789245229  0.6012910350497084
  0.4507697870111094  0.9404102174793848  0.4071979437492273
  0.1796515219240575  0.3423378843098167 -0.0067809998580978
  0.2975869286780461  0.5509243130699275  0.7667604669842442
  0.1781854770919670  0.3895291324048444  0.5990920862913207
  0.0685655377922061  0.1519790291137077  0.2066903923071711
  0.7821046159150808  0.5141853721461939  0.8050116757265194
  0.6826520795580487  0.3970821987629484  0.6083361374911018
  0.6019562714255225  0.2034799935043118  0.7903116284361315
  0.5589335957291396  0.0728701077837880  0.6075303641521030
  0.3456614560218395  0.6504702090665784 -0.0026648742244504
  0.2334438264791389  0.4790279685779755  0.1993664954569478
 
  0.00000000E+00  0.00000000E+00  0.00000000E+00
  0.00000000E+00  0.00000000E+00  0.00000000E+00
  0.00000000E+00  0.00000000E+00  0.00000000E+00
  0.00000000E+00  0.00000000E+00  0.00000000E+00
  0.00000000E+00  0.00000000E+00  0.00000000E+00
  0.00000000E+00  0.00000000E+00  0.00000000E+00
  0.00000000E+00  0.00000000E+00  0.00000000E+00
  0.00000000E+00  0.00000000E+00  0.00000000E+00
  0.00000000E+00  0.00000000E+00  0.00000000E+00
  0.00000000E+00  0.00000000E+00  0.00000000E+00
  0.00000000E+00  0.00000000E+00  0.00000000E+00
  0.00000000E+00  0.00000000E+00  0.00000000E+00
  0.00000000E+00  0.00000000E+00  0.00000000E+00
  0.00000000E+00  0.00000000E+00  0.00000000E+00
  0.00000000E+00  0.00000000E+00  0.00000000E+00
  0.00000000E+00  0.00000000E+00  0.00000000E+00
  0.00000000E+00  0.00000000E+00  0.00000000E+00
  0.00000000E+00  0.00000000E+00  0.00000000E+00
  0.00000000E+00  0.00000000E+00  0.00000000E+00
  0.00000000E+00  0.00000000E+00  0.00000000E+00
  0.00000000E+00  0.00000000E+00  0.00000000E+00
  0.00000000E+00  0.00000000E+00  0.00000000E+00
  0.00000000E+00  0.00000000E+00  0.00000000E+00
  0.00000000E+00  0.00000000E+00  0.00000000E+00
  0.00000000E+00  0.00000000E+00  0.00000000E+00
  0.00000000E+00  0.00000000E+00  0.00000000E+00
  0.00000000E+00  0.00000000E+00  0.00000000E+00
  0.00000000E+00  0.00000000E+00  0.00000000E+00
  0.00000000E+00  0.00000000E+00  0.00000000E+00
