Nb Mo Ta Ti  V                          
   1.00000000000000     
    -3.1527759783706513   -3.1636890296393125   -3.1765058205751040
     1.5909463001006285    1.4473577770954191   -7.8217504696194435
     7.9818809528107746   -7.9038876227203616   -1.6933011246902718
   Nb   Mo   Ta   Ti   V 
     6     5     6     6     6
Direct
  0.9550975286097466  0.9431873188681068  0.3937092016440009
  0.6327311666104783  0.2756275598935330  0.3968405206843413
  0.5015672474340900 -0.0047090817981104 -0.0029720463606620
 -0.0039185642362407  0.0020179232399830  0.0043877811398255
  0.0970713222300231  0.2033636155434416  0.7941615515223679
  0.0336472978895243  0.0696329641386178  0.5962188820167652
  0.9079394107905929  0.7968124136464132  0.2040651528473227
  0.8093755837314873  0.5929354658225706  0.3950256559968591
  0.6624027541022228  0.3458504389317208 -0.0069025860423950
  0.3743114022969927  0.7237601583192342  0.6034132797255817
  0.1332880923964335  0.2789866710896500  0.3983120866918566
  0.8319917176624634  0.6458949843097436  0.0197725658138499
  0.9233892787364903  0.8652408670748575  0.8020573641420375
  0.5519041402781886  0.1383059779775331  0.1929468207749500
  0.4135577076048528  0.7842193543781643  0.1989672010314216
  0.4392839796841346  0.8508124470618659  0.8006734993436486
  0.2973421635516030  0.6060850558199432  0.4062786147142499
  0.8595225115360936  0.7261335730838447  0.6022416914500471
  0.4656537414438617  0.9308363841459155  0.4091971742959602
  0.1879538273542352  0.3332033960645844 -0.0065780841168596
  0.2776811046885908  0.5286138209087190  0.7930398429806432
  0.2070433057046793  0.3854038069320198  0.5943505741059389
  0.0286428587740952  0.1920056560700331  0.1999260891098653
  0.7654277611257642  0.5181392728979739  0.8070346986434300
  0.6896331343955964  0.4075705920972510  0.6046268049989943
  0.6002049537973868  0.2007427323190492  0.7917377863815178
  0.5507620995421836  0.0635038089228726  0.6094845024204699
  0.3308495098464837  0.6502318313300903  0.0013420225321338
  0.2423096324179591  0.4789243209103685  0.1966413515118353
 
  0.00000000E+00  0.00000000E+00  0.00000000E+00
  0.00000000E+00  0.00000000E+00  0.00000000E+00
  0.00000000E+00  0.00000000E+00  0.00000000E+00
  0.00000000E+00  0.00000000E+00  0.00000000E+00
  0.00000000E+00  0.00000000E+00  0.00000000E+00
  0.00000000E+00  0.00000000E+00  0.00000000E+00
  0.00000000E+00  0.00000000E+00  0.00000000E+00
  0.00000000E+00  0.00000000E+00  0.00000000E+00
  0.00000000E+00  0.00000000E+00  0.00000000E+00
  0.00000000E+00  0.00000000E+00  0.00000000E+00
  0.00000000E+00  0.00000000E+00  0.00000000E+00
  0.00000000E+00  0.00000000E+00  0.00000000E+00
  0.00000000E+00  0.00000000E+00  0.00000000E+00
  0.00000000E+00  0.00000000E+00  0.00000000E+00
  0.00000000E+00  0.00000000E+00  0.00000000E+00
  0.00000000E+00  0.00000000E+00  0.00000000E+00
  0.00000000E+00  0.00000000E+00  0.00000000E+00
  0.00000000E+00  0.00000000E+00  0.00000000E+00
  0.00000000E+00  0.00000000E+00  0.00000000E+00
  0.00000000E+00  0.00000000E+00  0.00000000E+00
  0.00000000E+00  0.00000000E+00  0.00000000E+00
  0.00000000E+00  0.00000000E+00  0.00000000E+00
  0.00000000E+00  0.00000000E+00  0.00000000E+00
  0.00000000E+00  0.00000000E+00  0.00000000E+00
  0.00000000E+00  0.00000000E+00  0.00000000E+00
  0.00000000E+00  0.00000000E+00  0.00000000E+00
  0.00000000E+00  0.00000000E+00  0.00000000E+00
  0.00000000E+00  0.00000000E+00  0.00000000E+00
  0.00000000E+00  0.00000000E+00  0.00000000E+00
