Nb Mo Ta Ti  V                          
   1.00000000000000     
    -3.1707347019414494   -3.1436023124291057   -3.2070409628750469
     1.5307323656033383    1.4855976291927611   -7.8779644157164626
     7.9430134985932854   -7.8711478532954438   -1.6067570941108624
   Nb   Mo   Ta   Ti   V 
     6     6     6     6     5
Direct
  0.9647510845716541  0.9298319082412294  0.3963544603304097
  0.6312232012118867  0.2641168439420120  0.4018518161698099
  0.4970901073267083  0.0083026425880596 -0.0081720619228706
 -0.0028206037854181  0.0076210188862280  0.0003634482198559
  0.0869456663424786  0.2127878980057449  0.7977249772219077
  0.0060211586557543  0.0674853156968113  0.5970438280002569
  0.9043706705275628  0.7998750957698945  0.2026101054172982
  0.8089761286418146  0.5913810432106901  0.4020486012773626
  0.7291702128078474  0.4736107507630630  0.1979579622776880
  0.6587109419771164  0.3503975081616403 -0.0040852433467258
  0.3675085495825409  0.7179805244102436  0.6021873830414842
  0.1254498432759795  0.2727988286113904  0.3994047223123076
  0.8297544223466065  0.6706752787328450  0.0001890437830256
  0.9324319856461810  0.8699448585852149  0.8003250008357545
  0.5584408348901420  0.1400545330043622  0.1972080922513495
  0.4058612900195442  0.7969699549969060  0.1988445063890052
  0.4342386821326329  0.8682557878465634  0.7842281154696891
  0.3049271756860776  0.5955365157389702  0.4069717964911088
  0.8714034373877125  0.7105791459168297  0.6009906868624286
  0.4607793848149612  0.9341101702843154  0.4199086907916124
  0.1745409127948170  0.3451011727895513  0.0013312732591470
  0.2776871732858112  0.5302724937696741  0.7930658382096847
  0.2565533649486660  0.3385345394579425  0.5977153600148024
  0.0570053981846750  0.1531085298233820  0.2064568107902824
  0.7608202509867895  0.5263566807969492  0.8051021769855844
  0.7007710185621758  0.4099063873284506  0.6064152043950060
  0.6003350085313336  0.2127843892774018  0.7998009193423236
  0.3361124461050222  0.6565501309780378 -0.0033191890294322
  0.2276069225409423  0.4784033823855918  0.1994756741598421
 
  0.00000000E+00  0.00000000E+00  0.00000000E+00
  0.00000000E+00  0.00000000E+00  0.00000000E+00
  0.00000000E+00  0.00000000E+00  0.00000000E+00
  0.00000000E+00  0.00000000E+00  0.00000000E+00
  0.00000000E+00  0.00000000E+00  0.00000000E+00
  0.00000000E+00  0.00000000E+00  0.00000000E+00
  0.00000000E+00  0.00000000E+00  0.00000000E+00
  0.00000000E+00  0.00000000E+00  0.00000000E+00
  0.00000000E+00  0.00000000E+00  0.00000000E+00
  0.00000000E+00  0.00000000E+00  0.00000000E+00
  0.00000000E+00  0.00000000E+00  0.00000000E+00
  0.00000000E+00  0.00000000E+00  0.00000000E+00
  0.00000000E+00  0.00000000E+00  0.00000000E+00
  0.00000000E+00  0.00000000E+00  0.00000000E+00
  0.00000000E+00  0.00000000E+00  0.00000000E+00
  0.00000000E+00  0.00000000E+00  0.00000000E+00
  0.00000000E+00  0.00000000E+00  0.00000000E+00
  0.00000000E+00  0.00000000E+00  0.00000000E+00
  0.00000000E+00  0.00000000E+00  0.00000000E+00
  0.00000000E+00  0.00000000E+00  0.00000000E+00
  0.00000000E+00  0.00000000E+00  0.00000000E+00
  0.00000000E+00  0.00000000E+00  0.00000000E+00
  0.00000000E+00  0.00000000E+00  0.00000000E+00
  0.00000000E+00  0.00000000E+00  0.00000000E+00
  0.00000000E+00  0.00000000E+00  0.00000000E+00
  0.00000000E+00  0.00000000E+00  0.00000000E+00
  0.00000000E+00  0.00000000E+00  0.00000000E+00
  0.00000000E+00  0.00000000E+00  0.00000000E+00
  0.00000000E+00  0.00000000E+00  0.00000000E+00
