Nb Mo Ta Ti  V                          
   1.00000000000000     
    -3.0572104562797522   -3.0859041967536962   -3.0748059878840421
     1.6374234538538610    1.6313657559283099   -7.8851991434645905
     7.9213359726065038   -7.9436279551098714   -1.5885597002535463
   Nb   Mo   Ta   Ti   V 
     6     6     6     5     6
Direct
  0.7405106437399146  0.9244728320822619  0.4072872544321605
  0.6436755867168855  0.2717091544138079  0.4025262199381835
  0.5080805071454272  0.0011955714002142 -0.0022475446064597
  0.0051670011581285  0.0075343854268552  0.0019973840868340
  0.1073665173675491  0.2073456692894710  0.7939430465160606
  0.0436910368438444  0.0600246547453476  0.5887710601914454
  0.9238356603221892  0.7946701095922704  0.2005551849732083
  0.8068986438649326  0.5856910665347884  0.4030409148420752
  0.7347949656709528  0.4728689108277803  0.1983128326105119
  0.6688198290432140  0.3494517434336805 -0.0083916418652352
  0.3942209596334126  0.7307521240309681  0.5975481938162279
  0.1581280259821714  0.2566592818611322  0.3975466647540707
  0.8447923100733870  0.6660954219798823  0.0023426165858451
  0.9335409915304809  0.8775741126402282  0.7958949173772120
  0.5536733764306804  0.1469060105024426  0.1925697805231658
  0.4211062335355864  0.7991600700157389  0.2094256213440090
  0.4435694877916843  0.8565175749465870  0.7969381945795404
  0.2928776584209247  0.6099351271553158  0.4053884899678806
  0.8878675901608263  0.7134566070616229  0.6091157925987968
  0.1812921558741364  0.3423471927537005 -0.0013417376507077
  0.2798667499274803  0.5323213461569422  0.7931273349699066
  0.2126168338458642  0.3824382398353640  0.5910554616011650
  0.0513088575501234  0.1438449599624523  0.2091461215179403
  0.7703437931758426  0.5229879748133101  0.8082169678917904
  0.6928437365856024  0.4061639198817046  0.6070572043031331
  0.6061454747009885  0.2113668536673300  0.7894127549553741
  0.5458827849192188  0.0616991404601435  0.6084951748734136
  0.3475505937276466  0.6566507949181223  0.0004231772646125
  0.2328653242609190  0.4748258196105244  0.2018425576078397
 
  0.00000000E+00  0.00000000E+00  0.00000000E+00
  0.00000000E+00  0.00000000E+00  0.00000000E+00
  0.00000000E+00  0.00000000E+00  0.00000000E+00
  0.00000000E+00  0.00000000E+00  0.00000000E+00
  0.00000000E+00  0.00000000E+00  0.00000000E+00
  0.00000000E+00  0.00000000E+00  0.00000000E+00
  0.00000000E+00  0.00000000E+00  0.00000000E+00
  0.00000000E+00  0.00000000E+00  0.00000000E+00
  0.00000000E+00  0.00000000E+00  0.00000000E+00
  0.00000000E+00  0.00000000E+00  0.00000000E+00
  0.00000000E+00  0.00000000E+00  0.00000000E+00
  0.00000000E+00  0.00000000E+00  0.00000000E+00
  0.00000000E+00  0.00000000E+00  0.00000000E+00
  0.00000000E+00  0.00000000E+00  0.00000000E+00
  0.00000000E+00  0.00000000E+00  0.00000000E+00
  0.00000000E+00  0.00000000E+00  0.00000000E+00
  0.00000000E+00  0.00000000E+00  0.00000000E+00
  0.00000000E+00  0.00000000E+00  0.00000000E+00
  0.00000000E+00  0.00000000E+00  0.00000000E+00
  0.00000000E+00  0.00000000E+00  0.00000000E+00
  0.00000000E+00  0.00000000E+00  0.00000000E+00
  0.00000000E+00  0.00000000E+00  0.00000000E+00
  0.00000000E+00  0.00000000E+00  0.00000000E+00
  0.00000000E+00  0.00000000E+00  0.00000000E+00
  0.00000000E+00  0.00000000E+00  0.00000000E+00
  0.00000000E+00  0.00000000E+00  0.00000000E+00
  0.00000000E+00  0.00000000E+00  0.00000000E+00
  0.00000000E+00  0.00000000E+00  0.00000000E+00
  0.00000000E+00  0.00000000E+00  0.00000000E+00
