Nb Mo Ta Ti  W                          
   1.00000000000000     
    -3.1582744935350489   -3.1745238639432443   -3.1585876723984034
     1.6243874253955881    1.5778235513997936   -7.9322607609541835
     7.9605670781609286   -7.9497456079415869   -1.6308521028981788
   Nb   Mo   Ta   Ti   W 
     5     6     6     6     6
Direct
  0.6356615266978211  0.2623635255482563  0.4024642298530004
  0.5035826597585434 -0.0007238143359242 -0.0025852503150359
 -0.0012935140693688  0.0004544859753289  0.0063490948433413
  0.0952859884459573  0.2032940303358184  0.7992163058226167
  0.0360754641766285  0.0632204522529853  0.5867452606520049
  0.9056357488683549  0.7982773133026002  0.2058468099757094
  0.7962122020119375  0.5959771503816944  0.3968634256177329
  0.7313481179218236  0.4642421114175277  0.2024921660251316
  0.6645542293603589  0.3377638991164989 -0.0007080959616903
  0.3758245995925094  0.7295974001910975  0.5990527279341663
  0.1366944415835230  0.2757771911910855  0.4007791918901745
  0.8354790852614287  0.6623053728312953  0.0014772463733772
  0.9282623097128110  0.8709101525263819  0.7949961129813249
  0.5572015129290286  0.1362994734349399  0.1961121914279706
  0.4132153682342689  0.7941988928781598  0.1969222272861543
  0.4357662276178092  0.8577662751939531  0.7949797822411843
  0.2843538308132233  0.6213333070684852  0.4019204119873813
  0.8628953591160704  0.7399902873090293  0.5895417942546285
  0.4858947056058812  0.9295202924297377  0.4061739090651057
  0.1697186341482727  0.3307992172861614  0.0056429877457853
  0.2704797911228393  0.5323797798491613  0.7961256329867288
  0.1963169974538243  0.3977989116444220  0.5933435101347798
  0.0575788395704263  0.1281605384044968  0.2260319979482916
  0.7729549888912884  0.5271318639091118  0.7995111453884730
  0.6915907040276155  0.4091807949476837  0.6001689785130756
  0.5988232842753787  0.2011507397352361  0.7959703523195450
  0.5293913712273413  0.0711689816040949  0.6025698699501301
  0.3341067712790260  0.6573299312647477  0.0002248665523502
  0.2297220843653678  0.4689981123059222  0.2017711165065628
 
  0.00000000E+00  0.00000000E+00  0.00000000E+00
  0.00000000E+00  0.00000000E+00  0.00000000E+00
  0.00000000E+00  0.00000000E+00  0.00000000E+00
  0.00000000E+00  0.00000000E+00  0.00000000E+00
  0.00000000E+00  0.00000000E+00  0.00000000E+00
  0.00000000E+00  0.00000000E+00  0.00000000E+00
  0.00000000E+00  0.00000000E+00  0.00000000E+00
  0.00000000E+00  0.00000000E+00  0.00000000E+00
  0.00000000E+00  0.00000000E+00  0.00000000E+00
  0.00000000E+00  0.00000000E+00  0.00000000E+00
  0.00000000E+00  0.00000000E+00  0.00000000E+00
  0.00000000E+00  0.00000000E+00  0.00000000E+00
  0.00000000E+00  0.00000000E+00  0.00000000E+00
  0.00000000E+00  0.00000000E+00  0.00000000E+00
  0.00000000E+00  0.00000000E+00  0.00000000E+00
  0.00000000E+00  0.00000000E+00  0.00000000E+00
  0.00000000E+00  0.00000000E+00  0.00000000E+00
  0.00000000E+00  0.00000000E+00  0.00000000E+00
  0.00000000E+00  0.00000000E+00  0.00000000E+00
  0.00000000E+00  0.00000000E+00  0.00000000E+00
  0.00000000E+00  0.00000000E+00  0.00000000E+00
  0.00000000E+00  0.00000000E+00  0.00000000E+00
  0.00000000E+00  0.00000000E+00  0.00000000E+00
  0.00000000E+00  0.00000000E+00  0.00000000E+00
  0.00000000E+00  0.00000000E+00  0.00000000E+00
  0.00000000E+00  0.00000000E+00  0.00000000E+00
  0.00000000E+00  0.00000000E+00  0.00000000E+00
  0.00000000E+00  0.00000000E+00  0.00000000E+00
  0.00000000E+00  0.00000000E+00  0.00000000E+00
