Nb Mo Ta Ti  W                          
   1.00000000000000     
    -3.2156711310509944   -3.1990655332645486   -3.2134429650305281
     1.5437874783506456    1.5603793330476312   -7.9303308331884450
     7.8691578142711247   -7.8652910656518324   -1.5684228032642016
   Nb   Mo   Ta   Ti   W 
     5     6     6     6     6
Direct
  0.9595630672370326  0.9336276987471814  0.3950793105841243
  0.6314276405848143  0.2645988831144718  0.4022866899981700
  0.5021716390973729  0.0033888271116155 -0.0043029866319168
 -0.0007154301551592  0.0121080924944639 -0.0073364755806031
  0.0385652527833925  0.0745512305184099  0.6040617907866553
  0.9023468063779572  0.7979581449309447  0.2032296020637057
  0.8054270219618060  0.5923070590456094  0.4007578677960623
  0.7329595788072270  0.4663350265852708  0.1998472419823258
  0.6606461836192402  0.3401516229360947 -0.0033514632266618
  0.3695435453824739  0.7293568766675229  0.6019755416916542
  0.1288745442120277  0.2724963658638714  0.4025781274725100
  0.8363592992728914  0.6641548493663376  0.0006826733709793
  0.9295542133572187  0.8691560343520869  0.7989363402978767
  0.5646965296347096  0.1330129745316023  0.1954291379555783
  0.4032306669280615  0.7950381298714559  0.1968293108413715
  0.4352055927658587  0.8667853565302380  0.7965326850371964
  0.2991306261392085  0.6001891897577764  0.4058447094670656
  0.8603027930989749  0.7322075248969464  0.6001971152743800
  0.4595324301836356  0.9294368672970635  0.4084254663387429
  0.1711783540459239  0.3302952865601496 -0.0131924953982382
  0.2768499164485335  0.5412550138598994  0.7979145351561302
  0.1951133194234998  0.3839545033500417  0.6130503601798927
  0.0599318146065237  0.1468811239142742  0.2021852172175891
  0.7827565357455467  0.5135248591341782  0.8015179136015690
  0.6898710361524992  0.4077912082566348  0.6037186125046422
  0.5997998747973528  0.2033237860213595  0.7953268264544104
  0.5410461273464621  0.0679038105595766  0.6028302838994907
  0.3357797767150415  0.6600247256416619 -0.0007022016282967
  0.2288512434298644  0.4681849280832436  0.1996482624935968
 
  0.00000000E+00  0.00000000E+00  0.00000000E+00
  0.00000000E+00  0.00000000E+00  0.00000000E+00
  0.00000000E+00  0.00000000E+00  0.00000000E+00
  0.00000000E+00  0.00000000E+00  0.00000000E+00
  0.00000000E+00  0.00000000E+00  0.00000000E+00
  0.00000000E+00  0.00000000E+00  0.00000000E+00
  0.00000000E+00  0.00000000E+00  0.00000000E+00
  0.00000000E+00  0.00000000E+00  0.00000000E+00
  0.00000000E+00  0.00000000E+00  0.00000000E+00
  0.00000000E+00  0.00000000E+00  0.00000000E+00
  0.00000000E+00  0.00000000E+00  0.00000000E+00
  0.00000000E+00  0.00000000E+00  0.00000000E+00
  0.00000000E+00  0.00000000E+00  0.00000000E+00
  0.00000000E+00  0.00000000E+00  0.00000000E+00
  0.00000000E+00  0.00000000E+00  0.00000000E+00
  0.00000000E+00  0.00000000E+00  0.00000000E+00
  0.00000000E+00  0.00000000E+00  0.00000000E+00
  0.00000000E+00  0.00000000E+00  0.00000000E+00
  0.00000000E+00  0.00000000E+00  0.00000000E+00
  0.00000000E+00  0.00000000E+00  0.00000000E+00
  0.00000000E+00  0.00000000E+00  0.00000000E+00
  0.00000000E+00  0.00000000E+00  0.00000000E+00
  0.00000000E+00  0.00000000E+00  0.00000000E+00
  0.00000000E+00  0.00000000E+00  0.00000000E+00
  0.00000000E+00  0.00000000E+00  0.00000000E+00
  0.00000000E+00  0.00000000E+00  0.00000000E+00
  0.00000000E+00  0.00000000E+00  0.00000000E+00
  0.00000000E+00  0.00000000E+00  0.00000000E+00
  0.00000000E+00  0.00000000E+00  0.00000000E+00
