Nb Mo Ta Ti  W                          
   1.00000000000000     
    -3.1825221275002851   -3.1449573750231621   -3.1469439361250036
     1.5804754642783283    1.6916517331694143   -7.9756994089492270
     7.8881809245152619   -7.8842443228123607   -1.4833054479136387
   Nb   Mo   Ta   Ti   W 
     6     6     5     6     6
Direct
  0.9671498493140814  0.9305825422193688  0.3917984414116822
  0.6256225580114082  0.2583782805344524  0.3903883955283359
  0.5040904631953620  0.0113809945391010  0.0106179836658113
  0.0046677391795744  0.0083747837039503  0.0081449454937161
  0.0943230479334438  0.2046457612938045  0.8005015135471309
  0.0331094701275659  0.0679647855712557  0.5958207751816589
  0.8995992822403811  0.7954985977242730  0.2033612342877897
  0.8023211895892451  0.5911751342937857  0.3972079978830279
  0.7392400424638171  0.4627706673453936  0.1975151340876016
  0.6593564372139136  0.3398371700161684  0.0024286103208034
  0.3661044485714452  0.7266204598779838  0.5995692944929863
  0.1232143883953105  0.2708193466226895  0.4005827907322629
  0.8330873962991587  0.6681681222449447  0.0043255094171794
  0.9235575095534421  0.8753304694201820  0.8019224881516228
  0.4004456613843146  0.7873220653765578  0.2001429280834887
  0.4335710889406288  0.8609181526166534  0.7980082117220068
  0.3006213329348989  0.5967994943304546  0.4009644262457969
  0.8557152694604215  0.7327418820650297  0.5968017986382370
  0.4679735037590416  0.9272067870423574  0.4044160978277297
  0.1565052613783643  0.3420062011461899 -0.0013131387043103
  0.2681581791473754  0.5377262386799478  0.7962393616213462
  0.1964620436468361  0.3930608712991914  0.5940833599655492
  0.1168177382762970  0.1448993696237391  0.2076985847338845
  0.7679481966538845  0.5303025438527004  0.7987901403822684
  0.6889563227409295  0.4068698946909460  0.6019664824311989
  0.5942404641361350  0.2043490899684431  0.7988452190849324
  0.5365083470236626  0.0679512677159637  0.5994860806726848
  0.3340166027612471  0.6616953567293259  0.0007146476202690
  0.2399494956678030  0.4612703394551310  0.1989706854733057
 
  0.00000000E+00  0.00000000E+00  0.00000000E+00
  0.00000000E+00  0.00000000E+00  0.00000000E+00
  0.00000000E+00  0.00000000E+00  0.00000000E+00
  0.00000000E+00  0.00000000E+00  0.00000000E+00
  0.00000000E+00  0.00000000E+00  0.00000000E+00
  0.00000000E+00  0.00000000E+00  0.00000000E+00
  0.00000000E+00  0.00000000E+00  0.00000000E+00
  0.00000000E+00  0.00000000E+00  0.00000000E+00
  0.00000000E+00  0.00000000E+00  0.00000000E+00
  0.00000000E+00  0.00000000E+00  0.00000000E+00
  0.00000000E+00  0.00000000E+00  0.00000000E+00
  0.00000000E+00  0.00000000E+00  0.00000000E+00
  0.00000000E+00  0.00000000E+00  0.00000000E+00
  0.00000000E+00  0.00000000E+00  0.00000000E+00
  0.00000000E+00  0.00000000E+00  0.00000000E+00
  0.00000000E+00  0.00000000E+00  0.00000000E+00
  0.00000000E+00  0.00000000E+00  0.00000000E+00
  0.00000000E+00  0.00000000E+00  0.00000000E+00
  0.00000000E+00  0.00000000E+00  0.00000000E+00
  0.00000000E+00  0.00000000E+00  0.00000000E+00
  0.00000000E+00  0.00000000E+00  0.00000000E+00
  0.00000000E+00  0.00000000E+00  0.00000000E+00
  0.00000000E+00  0.00000000E+00  0.00000000E+00
  0.00000000E+00  0.00000000E+00  0.00000000E+00
  0.00000000E+00  0.00000000E+00  0.00000000E+00
  0.00000000E+00  0.00000000E+00  0.00000000E+00
  0.00000000E+00  0.00000000E+00  0.00000000E+00
  0.00000000E+00  0.00000000E+00  0.00000000E+00
  0.00000000E+00  0.00000000E+00  0.00000000E+00
