Nb Mo Ta Ti  W 
 1.0000000000000000
    -3.1899999999999999   -3.1899999999999999   -3.1899999999999999
     1.5950000000000000    1.5950000000000000   -7.9749999999999996
     7.9749999999999996   -7.9749999999999996   -1.5950000000000000
   6   6   5   6   6
Cartesian
  1.5949999840500002 -4.7850000159499997 -11.1649999840499987
  1.5950000159500000 -4.7849999840499997 -4.7850000159499997
  7.9749999999999996 -7.9749999999999996 -11.1650000000000009
  6.3799999999999999 -9.5700000000000003 -12.7599999999999998
  6.3799999999999999 -6.3799999999999999 -3.1899999999999999
  4.7850000159499997 -4.7849999840499997 -1.5950000159499997
  0.0000000000000000 -3.1899999999999999 -9.5700000000000003
  1.5949999999999998 -4.7850000000000001 -7.9749999999999996
  0.0000000159500000 -3.1899999840500000 -6.3800000159500003
  6.3799999840500004 -9.5700000159499989 -6.3799999840499995
  4.7849999840499997 -4.7850000159499997 -7.9749999840500001
  3.1900000159499999 -3.1899999840500000 -3.1900000159499999
  6.3800000159499994 -9.5699999840499999 -9.5700000159500007
  4.7850000159499997 -7.9749999840500001 -11.1650000159499996
  1.5950000000000000 -1.5950000000000000 -7.9749999999999996
  6.3800000159499994 -6.3799999840500004 -9.5700000159499989
  3.1899999999999999 -3.1899999999999999 -6.3799999999999990
  3.1899999840500000 -6.3800000159499994 -9.5699999840499999
  3.1899999840500000 -3.1900000159499999 -9.5699999840499999
  7.9749999840499992 -7.9750000159500001 -4.7849999840499997
  6.3799999840500004 -6.3800000159500003 -6.3799999840500004
  4.7849999999999993 -4.7849999999999993 -4.7850000000000001
  1.5949999840500000 -1.5950000159500000 -1.5949999840499998
  4.7849999840500006 -7.9750000159500001 -7.9749999840499992
  3.1899999999999999 -6.3799999999999990 -6.3799999999999999
  4.7850000000000001 -7.9749999999999996 -4.7850000000000001
  3.1900000159499995 -6.3799999840499995 -3.1900000159499999
  7.9750000159500001 -7.9749999840499992 -7.9750000159500001
  1.5950000159500000 -1.5949999840500000 -4.7850000159499997
