Nb Mo Ta Ti  W                          
   1.00000000000000     
    -3.1682438355843177   -3.1452543379944573   -3.2001614617047309
     1.5309195077409783    1.5624311719647936   -7.9373294245954993
     8.0278012220125827   -8.0170300984698954   -1.5535657611424039
   Nb   Mo   Ta   Ti   W 
     6     6     6     6     5
Direct
  0.9555413543143928  0.9321447218367915  0.3961576390200358
  0.6298123456805210  0.2633121398280268  0.4014666185117380
  0.5005873362755431  0.0001690616647395 -0.0044285520448366
 -0.0030932350477003  0.0060616925201620  0.0016211283389280
  0.0705286736376729  0.2334697794757460  0.7989287126462519
  0.0359316267206111  0.0691827687676754  0.5990461358716698
  0.9011114257937400  0.7970691132430565  0.2017092745684357
  0.8037859545522971  0.5910980321440381  0.3992455554964370
  0.7330793764391679  0.4660641480646643  0.1989088180437202
  0.6644493895131710  0.3426086704440282 -0.0019912373989031
  0.3643460305828840  0.7264540528758845  0.5998173386081570
  0.1283390580780494  0.2691079179342076  0.4008648662020332
  0.8337213022193906  0.6609000698788723 -0.0043177851284683
  0.9411586162493287  0.8753912392181926  0.7997305179089609
  0.5646382139503329  0.1299807279271485  0.1985664530330539
  0.4067669360094418  0.7925780016192937  0.1977641628016882
  0.4495619305055298  0.8523017535906078  0.7969207705867855
  0.2991759712634317  0.5998930332269347  0.4023551727578675
  0.8547085535360731  0.7279491208767079  0.6024213838857921
  0.4642068918024336  0.9256209242363150  0.4079871776639166
  0.1863704107212610  0.3321080252575996  0.0058971191887082
  0.3070715412914194  0.5331645648827358  0.7974594861099118
  0.2072699679767368  0.3905191359026640  0.5930609196183001
  0.0582434849160700  0.1454019770862703  0.2068176340268694
  0.6900679376104661  0.4084646772714970  0.6026335610022351
  0.5888800594282891  0.2037693851760063  0.7971519971184952
  0.5361514302906386  0.0634484582338351  0.6045920526707492
  0.3316838674410823  0.6595456930154115  0.0002118903796535
  0.2292368782477186  0.4688877838008751  0.1994011885118183
 
  0.00000000E+00  0.00000000E+00  0.00000000E+00
  0.00000000E+00  0.00000000E+00  0.00000000E+00
  0.00000000E+00  0.00000000E+00  0.00000000E+00
  0.00000000E+00  0.00000000E+00  0.00000000E+00
  0.00000000E+00  0.00000000E+00  0.00000000E+00
  0.00000000E+00  0.00000000E+00  0.00000000E+00
  0.00000000E+00  0.00000000E+00  0.00000000E+00
  0.00000000E+00  0.00000000E+00  0.00000000E+00
  0.00000000E+00  0.00000000E+00  0.00000000E+00
  0.00000000E+00  0.00000000E+00  0.00000000E+00
  0.00000000E+00  0.00000000E+00  0.00000000E+00
  0.00000000E+00  0.00000000E+00  0.00000000E+00
  0.00000000E+00  0.00000000E+00  0.00000000E+00
  0.00000000E+00  0.00000000E+00  0.00000000E+00
  0.00000000E+00  0.00000000E+00  0.00000000E+00
  0.00000000E+00  0.00000000E+00  0.00000000E+00
  0.00000000E+00  0.00000000E+00  0.00000000E+00
  0.00000000E+00  0.00000000E+00  0.00000000E+00
  0.00000000E+00  0.00000000E+00  0.00000000E+00
  0.00000000E+00  0.00000000E+00  0.00000000E+00
  0.00000000E+00  0.00000000E+00  0.00000000E+00
  0.00000000E+00  0.00000000E+00  0.00000000E+00
  0.00000000E+00  0.00000000E+00  0.00000000E+00
  0.00000000E+00  0.00000000E+00  0.00000000E+00
  0.00000000E+00  0.00000000E+00  0.00000000E+00
  0.00000000E+00  0.00000000E+00  0.00000000E+00
  0.00000000E+00  0.00000000E+00  0.00000000E+00
  0.00000000E+00  0.00000000E+00  0.00000000E+00
  0.00000000E+00  0.00000000E+00  0.00000000E+00
