Nb Mo Ta Ti  V                          
   1.00000000000000     
    -3.1651014288104684   -3.1073922236975173   -3.1105628455006591
     1.5656180575919292    1.6969766831925952   -7.9023936672741995
     7.8034182742294123   -7.7712741989687881   -1.4418678819537007
   Nb   Mo   Ta   Ti   V 
     5     6     6     6     6
Direct
  0.9558136291980948  0.9321488074593127  0.3933827099236720
  0.6300929268927908  0.2644681501187175  0.4027315436882841
  0.5015350858798511  0.0069001962983234 -0.0066880762990438
  0.0879811969785325  0.1982188942591279  0.8093915714239514
  0.0345733658466487  0.0677884202604127  0.6014729515175823
  0.9074675713761078  0.7980445996371150  0.1957398699089334
  0.8065701512013012  0.5893607111195382  0.3997176550140285
  0.7325232991112030  0.4657070059865475  0.1963444132060427
  0.6693348261859761  0.3353897519906809 -0.0085405267425346
  0.3671894841138544  0.7257672145899660  0.6031090523803568
  0.1291480908208639  0.2702629130538746  0.4003083877388884
  0.8339422017688782  0.6619103261765171  0.0025512991272140
  0.9391877837479148  0.8863032523188296  0.8184303374169637
  0.5603742369199541  0.1356513064328979  0.1940909783604223
  0.4099680928857025  0.7906421218374117  0.1963027403162248
  0.4558111502537509  0.8541369845284259  0.7958036808591350
  0.2986221921016758  0.5996746706550609  0.4022210509480750
  0.8616659105636122  0.7265013541559684  0.6015916539907626
  0.4634841163662200  0.9274159052716183  0.4086965862934288
  0.1851537429745886  0.3502591695113251  0.0001195896696762
  0.2678237449648740  0.5416298558748447  0.7947215422835679
  0.1957378535620617  0.3889244714377223  0.5990440402382299
  0.0611614958859404  0.1439408585065019  0.1933698851564890
  0.7665037340242715  0.5177774507725892  0.8020453723493060
  0.6898191515093528  0.4058960422421612  0.6083206862286805
  0.5811716104608444  0.2152153573056532  0.7896598092430659
  0.5424315453708312  0.0704560385556830  0.6089130995490768
  0.3342997666662416  0.6585116477668644 -0.0011317630646707
  0.2306120423680752  0.4710965218763015  0.1982798592741910
 
  0.00000000E+00  0.00000000E+00  0.00000000E+00
  0.00000000E+00  0.00000000E+00  0.00000000E+00
  0.00000000E+00  0.00000000E+00  0.00000000E+00
  0.00000000E+00  0.00000000E+00  0.00000000E+00
  0.00000000E+00  0.00000000E+00  0.00000000E+00
  0.00000000E+00  0.00000000E+00  0.00000000E+00
  0.00000000E+00  0.00000000E+00  0.00000000E+00
  0.00000000E+00  0.00000000E+00  0.00000000E+00
  0.00000000E+00  0.00000000E+00  0.00000000E+00
  0.00000000E+00  0.00000000E+00  0.00000000E+00
  0.00000000E+00  0.00000000E+00  0.00000000E+00
  0.00000000E+00  0.00000000E+00  0.00000000E+00
  0.00000000E+00  0.00000000E+00  0.00000000E+00
  0.00000000E+00  0.00000000E+00  0.00000000E+00
  0.00000000E+00  0.00000000E+00  0.00000000E+00
  0.00000000E+00  0.00000000E+00  0.00000000E+00
  0.00000000E+00  0.00000000E+00  0.00000000E+00
  0.00000000E+00  0.00000000E+00  0.00000000E+00
  0.00000000E+00  0.00000000E+00  0.00000000E+00
  0.00000000E+00  0.00000000E+00  0.00000000E+00
  0.00000000E+00  0.00000000E+00  0.00000000E+00
  0.00000000E+00  0.00000000E+00  0.00000000E+00
  0.00000000E+00  0.00000000E+00  0.00000000E+00
  0.00000000E+00  0.00000000E+00  0.00000000E+00
  0.00000000E+00  0.00000000E+00  0.00000000E+00
  0.00000000E+00  0.00000000E+00  0.00000000E+00
  0.00000000E+00  0.00000000E+00  0.00000000E+00
  0.00000000E+00  0.00000000E+00  0.00000000E+00
  0.00000000E+00  0.00000000E+00  0.00000000E+00
