Nb Mo Ta Ti  V                          
   1.00000000000000     
    -3.1204302683896823   -3.1691841974158468   -3.1474684016312935
     1.6491913836001730    1.4657183740013608   -7.8399446355310278
     7.9226658239067431   -7.8800595296535656   -1.7393115053865587
   Nb   Mo   Ta   Ti   V 
     5     6     6     6     6
Direct
  0.6356137413265539  0.2617361115065250  0.4058525627932550
  0.5010879367034766 -0.0008557638089766 -0.0069561569554871
 -0.0044260873108262  0.0008888382852090  0.0040911106850914
  0.0954265961945521  0.2071757043375074  0.7952815156994129
  0.0394863282202668  0.0658374299843020  0.5841055322817036
  0.9104985480095641  0.7932416714097801  0.2039154804259879
  0.7980295816684200  0.5970014675874910  0.3986997655916264
  0.7289619824768407  0.4625469829633135  0.2030758078788525
  0.6596817555756099  0.3421766633105457 -0.0046328001455401
  0.3812888495749122  0.7278268876452657  0.6017982576393101
  0.1403427147662525  0.2789476214247177  0.3996387106389930
  0.8373930637389289  0.6584786796712910  0.0013399880438312
  0.9235135090729892  0.8736709233718293  0.7920448910897399
  0.5514928698427106  0.1386843669363109  0.1932548295257600
  0.4140226886008225  0.7909919333342327  0.1947184664076279
  0.4351340145873348  0.8566544098183833  0.7953070196305786
  0.2821738570590976  0.6266508074311028  0.4034646547957420
  0.8650092507124780  0.7409529296620280  0.5910363197936808
  0.4989035485381909  0.9302543043648265  0.4068712173131745
  0.1687865834556643  0.3314871900119517  0.0053812681933945
  0.2717229991461335  0.5291105498180702  0.7945690362581902
  0.1993008764439156  0.3974750567926253  0.5946006935000867
  0.0546006025409251  0.1216203028504308  0.2300863966368692
  0.7678755064108587  0.5194674241658318  0.8050347451994019
  0.6847041939469194  0.4142432670141096  0.6034949599387534
  0.5969616343581080  0.2072120257026473  0.7915509926779632
  0.5326822757097007  0.0745712743803040  0.6115117709586712
  0.3373775502407998  0.6472676335308514 -0.0015271280778650
  0.2256863583888122  0.4713499764974881  0.2023900915811954
 
  0.00000000E+00  0.00000000E+00  0.00000000E+00
  0.00000000E+00  0.00000000E+00  0.00000000E+00
  0.00000000E+00  0.00000000E+00  0.00000000E+00
  0.00000000E+00  0.00000000E+00  0.00000000E+00
  0.00000000E+00  0.00000000E+00  0.00000000E+00
  0.00000000E+00  0.00000000E+00  0.00000000E+00
  0.00000000E+00  0.00000000E+00  0.00000000E+00
  0.00000000E+00  0.00000000E+00  0.00000000E+00
  0.00000000E+00  0.00000000E+00  0.00000000E+00
  0.00000000E+00  0.00000000E+00  0.00000000E+00
  0.00000000E+00  0.00000000E+00  0.00000000E+00
  0.00000000E+00  0.00000000E+00  0.00000000E+00
  0.00000000E+00  0.00000000E+00  0.00000000E+00
  0.00000000E+00  0.00000000E+00  0.00000000E+00
  0.00000000E+00  0.00000000E+00  0.00000000E+00
  0.00000000E+00  0.00000000E+00  0.00000000E+00
  0.00000000E+00  0.00000000E+00  0.00000000E+00
  0.00000000E+00  0.00000000E+00  0.00000000E+00
  0.00000000E+00  0.00000000E+00  0.00000000E+00
  0.00000000E+00  0.00000000E+00  0.00000000E+00
  0.00000000E+00  0.00000000E+00  0.00000000E+00
  0.00000000E+00  0.00000000E+00  0.00000000E+00
  0.00000000E+00  0.00000000E+00  0.00000000E+00
  0.00000000E+00  0.00000000E+00  0.00000000E+00
  0.00000000E+00  0.00000000E+00  0.00000000E+00
  0.00000000E+00  0.00000000E+00  0.00000000E+00
  0.00000000E+00  0.00000000E+00  0.00000000E+00
  0.00000000E+00  0.00000000E+00  0.00000000E+00
  0.00000000E+00  0.00000000E+00  0.00000000E+00
