Nb - Mo - Ta - Ti - W SQS-30 BCC        
   3.19000000000000     
    -0.0042133275129550   -0.0021987698183131    1.9998676098858876
     2.5005458190261542    0.5067091423255062    0.4941440595874325
     0.0068550764184209    2.9976478159493545    0.9966258381037385
   Nb   Mo   Ta   Ti   W 
     6     6     6     6     6
Direct
 -0.0010699543095522 -0.0067428222573366 -0.0032850509316461
  0.8301225964785981 -0.0035727000254238  0.3376559403732928
  0.1017886014133102  0.3973337424722617  0.5987998606447361
  0.2052646411486188  0.7991420730597121  0.1931491938300384
  0.7922293130733135  0.2007398674078117  0.8036379261432753
  0.9321417306704659  0.4077567141610575  0.9304973502272166
  0.5032793287189830 -0.0031552905375609 -0.0000051190820570
  0.3293371824762210  0.0016872165695516  0.3388408158089279
  0.4646950166205470  0.1969758499693580  0.4679779153744815
  0.2320431934514315  0.6016949441287993  0.7335037829366814
  0.7349645544067658  0.6043838466255425  0.7321422861171435
  0.8653893124180538  0.7964080968727315  0.8679773848289654
  0.1427621370181026  0.1976741308787338  0.1289008362387658
  0.6259662361527990  0.1956955679751836  0.1323042202424106
  0.6744502119213075  0.0039499172882921  0.6623484731169177
  0.7659917404352039  0.3987445923986862  0.2677658857588677
  0.3980512103797141  0.6070256061110726  0.3975050536132435
  0.5985197783429093  0.4018763731130282  0.6006295812583887
  0.1596396055851418  0.0007268981939342  0.6642895161568489
  0.2678409871892210  0.3979531107745871  0.2670541173881667
  0.3030627814761908  0.1965793862955970  0.8090619742780623
  0.9041345750573277  0.6075527561667479  0.3984483848119748
  0.5276360634885210  0.7910935349807223  0.5452346780088655
  0.3715371893290778  0.7957275039026955  0.8648126375111173
  0.0657583053596942  0.5993166612357178  0.0667601976701355
  0.5693533672822866  0.6004657654760621  0.0657028250463157
  0.9695532860035319  0.2011172802993087  0.4635887876406971
  0.6976045200839759  0.8005969881999433  0.1976461773811875
  0.0369504374333551  0.8002659561412343  0.5339052958739817
  0.4310020508948841  0.4109864321219484  0.9331490717329830
 
  0.00000000E+00  0.00000000E+00  0.00000000E+00
  0.00000000E+00  0.00000000E+00  0.00000000E+00
  0.00000000E+00  0.00000000E+00  0.00000000E+00
  0.00000000E+00  0.00000000E+00  0.00000000E+00
  0.00000000E+00  0.00000000E+00  0.00000000E+00
  0.00000000E+00  0.00000000E+00  0.00000000E+00
  0.00000000E+00  0.00000000E+00  0.00000000E+00
  0.00000000E+00  0.00000000E+00  0.00000000E+00
  0.00000000E+00  0.00000000E+00  0.00000000E+00
  0.00000000E+00  0.00000000E+00  0.00000000E+00
  0.00000000E+00  0.00000000E+00  0.00000000E+00
  0.00000000E+00  0.00000000E+00  0.00000000E+00
  0.00000000E+00  0.00000000E+00  0.00000000E+00
  0.00000000E+00  0.00000000E+00  0.00000000E+00
  0.00000000E+00  0.00000000E+00  0.00000000E+00
  0.00000000E+00  0.00000000E+00  0.00000000E+00
  0.00000000E+00  0.00000000E+00  0.00000000E+00
  0.00000000E+00  0.00000000E+00  0.00000000E+00
  0.00000000E+00  0.00000000E+00  0.00000000E+00
  0.00000000E+00  0.00000000E+00  0.00000000E+00
  0.00000000E+00  0.00000000E+00  0.00000000E+00
  0.00000000E+00  0.00000000E+00  0.00000000E+00
  0.00000000E+00  0.00000000E+00  0.00000000E+00
  0.00000000E+00  0.00000000E+00  0.00000000E+00
  0.00000000E+00  0.00000000E+00  0.00000000E+00
  0.00000000E+00  0.00000000E+00  0.00000000E+00
  0.00000000E+00  0.00000000E+00  0.00000000E+00
  0.00000000E+00  0.00000000E+00  0.00000000E+00
  0.00000000E+00  0.00000000E+00  0.00000000E+00
  0.00000000E+00  0.00000000E+00  0.00000000E+00
