Nb - Mo - Ta - Ti - W SQS-30 BCC
    3.19
  0.00000000  0.00000000  2.00000000
  2.50000000  0.50000000  0.50000000
  0.00000000  3.00000000  1.00000000
Nb Mo Ta Ti W
   6   6   6   6   6
Direct
  1.00000000  1.00000000  1.00000000
  0.83333333  1.00000000  0.33333333
  0.10000000  0.40000000  0.60000000
  0.20000000  0.80000000  0.20000000
  0.80000000  0.20000000  0.80000000
  0.93333333  0.40000000  0.93333333

  0.50000000  1.00000000  1.00000000
  0.33333333  1.00000000  0.33333333
  0.46666667  0.20000000  0.46666667
  0.23333333  0.60000000  0.73333333
  0.73333333  0.60000000  0.73333333
  0.86666667  0.80000000  0.86666667

  0.13333333  0.20000000  0.13333333
  0.63333333  0.20000000  0.13333333
  0.66666667  1.00000000  0.66666667
  0.76666667  0.40000000  0.26666667
  0.40000000  0.60000000  0.40000000
  0.60000000  0.40000000  0.60000000

  0.16666667  1.00000000  0.66666667
  0.26666667  0.40000000  0.26666667
  0.30000000  0.20000000  0.80000000
  0.90000000  0.60000000  0.40000000
  0.53333333  0.80000000  0.53333333
  0.36666667  0.80000000  0.86666667

  0.06666667  0.60000000  0.06666667
  0.56666667  0.60000000  0.06666667
  0.96666667  0.20000000  0.46666667
  0.70000000  0.80000000  0.20000000
  0.03333333  0.80000000  0.53333333
  0.43333333  0.40000000  0.93333333
