Nb Mo Ta Ti  V                          
   1.00000000000000     
    -3.1585072950344637   -3.1584055840258678   -3.1904568061957703
     1.5276845549023654    1.4568800686855214   -7.8027892403629062
     7.9336019338745984   -7.9015334403144264   -1.6264588643435285
   Nb   Mo   Ta   Ti   V 
     6     6     5     6     6
Direct
  0.9590369153587552  0.9347230491768365  0.3981418668782479
  0.6332275092936035  0.2625010351620285  0.4030372792319777
  0.5139838497785139 -0.0039671865867209 -0.0075589376007209
  0.0061847151226892  0.0100237783148927  0.0020995363943265
  0.0953361754103833  0.2078226783223001  0.8008919502392343
  0.0368727275638761  0.0614843246225276  0.6004242235111221
  0.9084715995767140  0.7951235418278498  0.1964841776075496
  0.8100716017882084  0.5900056385940649  0.3989276557951241
  0.7287935521918808  0.4755463983644002  0.1941676477189182
  0.6483145785540548  0.3496556092725623 -0.0046088468456530
  0.3736577323772744  0.7206282686103387  0.6023311948634983
  0.1300317873331737  0.2729262087489997  0.3985964332967002
  0.9274171295769394  0.8440569037309337  0.8170413076126346
  0.5647388690172652  0.1376410367010859  0.1934279918363972
  0.4042752995876914  0.7959855050866708  0.1961807907930120
  0.4302500019229702  0.8548718791887264  0.7972275162093366
  0.3023768949202987  0.6002445063759888  0.4022308323238415
  0.8603703549642152  0.7233395995887241  0.6036954197161983
  0.4684552012524771  0.9258135466877325  0.4088126766697704
  0.1213694462606294  0.3983572450784105 -0.0016518106792401
  0.2909848931447246  0.5234653890567462  0.7884681708059599
  0.2040654683283545  0.3798862312141597  0.5967217970141212
  0.0563450142220345  0.1595967736146604  0.1996031145777401
  0.7671403178981351  0.5209161862249326  0.8057004982955217
  0.6922223569145169  0.4008083398527498  0.6061409966879211
  0.6051463685021451  0.1984775555239188  0.7933814606250378
  0.5498756039507909  0.0630212725312763  0.6107656113042546
  0.3473532224670746  0.6547557464635075 -0.0019572313061952
  0.2302974827206226  0.4756222686496906  0.2012766764233636
 
  0.00000000E+00  0.00000000E+00  0.00000000E+00
  0.00000000E+00  0.00000000E+00  0.00000000E+00
  0.00000000E+00  0.00000000E+00  0.00000000E+00
  0.00000000E+00  0.00000000E+00  0.00000000E+00
  0.00000000E+00  0.00000000E+00  0.00000000E+00
  0.00000000E+00  0.00000000E+00  0.00000000E+00
  0.00000000E+00  0.00000000E+00  0.00000000E+00
  0.00000000E+00  0.00000000E+00  0.00000000E+00
  0.00000000E+00  0.00000000E+00  0.00000000E+00
  0.00000000E+00  0.00000000E+00  0.00000000E+00
  0.00000000E+00  0.00000000E+00  0.00000000E+00
  0.00000000E+00  0.00000000E+00  0.00000000E+00
  0.00000000E+00  0.00000000E+00  0.00000000E+00
  0.00000000E+00  0.00000000E+00  0.00000000E+00
  0.00000000E+00  0.00000000E+00  0.00000000E+00
  0.00000000E+00  0.00000000E+00  0.00000000E+00
  0.00000000E+00  0.00000000E+00  0.00000000E+00
  0.00000000E+00  0.00000000E+00  0.00000000E+00
  0.00000000E+00  0.00000000E+00  0.00000000E+00
  0.00000000E+00  0.00000000E+00  0.00000000E+00
  0.00000000E+00  0.00000000E+00  0.00000000E+00
  0.00000000E+00  0.00000000E+00  0.00000000E+00
  0.00000000E+00  0.00000000E+00  0.00000000E+00
  0.00000000E+00  0.00000000E+00  0.00000000E+00
  0.00000000E+00  0.00000000E+00  0.00000000E+00
  0.00000000E+00  0.00000000E+00  0.00000000E+00
  0.00000000E+00  0.00000000E+00  0.00000000E+00
  0.00000000E+00  0.00000000E+00  0.00000000E+00
  0.00000000E+00  0.00000000E+00  0.00000000E+00
