Nb Mo Ta Ti  V 
 1.0000000000000000
    -3.1600000000000001   -3.1600000000000001   -3.1600000000000001
     1.5800000000000001    1.5800000000000001   -7.9000000000000004
     7.9000000000000004   -7.9000000000000004   -1.5800000000000001
   6   6   5   6   6
Cartesian
  1.5799999842000001 -4.7400000158000006 -11.0599999841999992
  1.5800000158000000 -4.7399999842000007 -4.7400000157999997
  7.9000000000000004 -7.9000000000000004 -11.0600000000000005
  6.3200000000000003 -9.4800000000000004 -12.6400000000000006
  6.3200000000000003 -6.3200000000000003 -3.1600000000000001
  4.7400000157999997 -4.7399999841999998 -1.5800000158000000
  0.0000000000000001 -3.1600000000000001 -9.4800000000000022
  1.5799999999999998 -4.7400000000000011 -7.9000000000000004
  0.0000000158000001 -3.1599999842000002 -6.3200000158000007
  6.3199999841999999 -9.4800000158000000 -6.3199999842000008
  4.7399999841999998 -4.7400000157999997 -7.8999999842000008
  3.1600000158000001 -3.1599999842000002 -3.1600000158000001
  4.7400000158000006 -7.8999999842000008 -11.0600000158000000
 -0.0000000157999999 -3.1600000158000001 -3.1599999841999997
  1.5800000000000001 -1.5800000000000001 -7.9000000000000004
  6.3200000158000007 -6.3199999842000008 -9.4800000158000000
  3.1600000000000001 -3.1600000000000001 -6.3200000000000003
  3.1599999842000002 -6.3200000157999998 -9.4799999842000009
  3.1599999842000002 -3.1600000158000006 -9.4799999842000009
  7.8999999841999999 -7.9000000158000008 -4.7399999842000007
  6.3199999842000008 -6.3200000158000007 -6.3199999842000016
  4.7400000000000002 -4.7400000000000002 -4.7400000000000002
  1.5799999842000001 -1.5800000158000003 -1.5799999842000001
  4.7399999842000007 -7.9000000158000008 -7.8999999842000017
  3.1600000000000006 -6.3199999999999994 -6.3200000000000003
  4.7400000000000011 -7.9000000000000004 -4.7400000000000002
  3.1600000157999997 -6.3199999842000008 -3.1600000158000001
  7.9000000158000008 -7.8999999841999999 -7.9000000157999999
  1.5800000158000000 -1.5799999842000001 -4.7400000158000006
