Nb Mo Ta Ti  W                          
   1.00000000000000     
    -3.2032341387497123   -3.1953693534970617   -3.1983430434917475
     1.5414257308310606    1.5904074135023121   -7.9286213226851157
     7.8828658521228681   -7.9186528080704264   -1.5437266470707161
   Nb   Mo   Ta   Ti   W 
     6     6     6     5     6
Direct
  0.9510497970126695  0.9189396744951730  0.4156221489188699
  0.6292542285502412  0.2655440609018507  0.4025512095040444
  0.5023431434703337  0.0003069734852264 -0.0041216042626374
 -0.0012749170180267 -0.0011970474285610  0.0017435450157900
  0.0976386237073213  0.2054048381573417  0.7961569803604460
  0.0435455842148740  0.0765919418701486  0.5963222874070050
  0.9009051619345682  0.7970480930915242  0.2044314960695018
  0.8058787019294849  0.5947712675709805  0.3998561771701389
  0.7332616874851511  0.4640941392076124  0.1995683823264514
  0.6681664710802028  0.3367585337118644 -0.0009169806100109
  0.3869145298145439  0.7292106882014470  0.5995448510110825
  0.1289105751198268  0.2734472166780055  0.4014915374759446
  0.8363454971023403  0.6646708665706941 -0.0006877805043726
  0.9293693958882859  0.8579670147728961  0.7780549542879398
  0.5687511734161628  0.1305725101414549  0.1980298929409306
  0.4037086214566118  0.7940338825702147  0.1987525976725227
  0.4325346772453234  0.8579692547764441  0.7961521383726237
  0.3073349571362328  0.6010516216279486  0.4016141665245296
  0.4529812394366652  0.9349154647716267  0.4042120799903041
  0.1742387092550160  0.3308044567495181  0.0015167253109013
  0.2793366677417946  0.5299367222718705  0.8008648494798283
  0.1738799838418355  0.4268712654746037  0.5977117744184389
  0.0612042949419686  0.1432158229500508  0.2106041077180757
  0.7739581481426866  0.5293013036501131  0.7985298628423507
  0.6875659777511869  0.4098208648617911  0.6027379456075385
  0.5990828130983761  0.2007304432941249  0.7964743404626301
  0.5424914986709624  0.0679683939257798  0.6036207839022302
  0.3346599022582175  0.6584308095947029 -0.0003614948092010
  0.2292961853151353  0.4674855920535381  0.1999230253961012
 
  0.00000000E+00  0.00000000E+00  0.00000000E+00
  0.00000000E+00  0.00000000E+00  0.00000000E+00
  0.00000000E+00  0.00000000E+00  0.00000000E+00
  0.00000000E+00  0.00000000E+00  0.00000000E+00
  0.00000000E+00  0.00000000E+00  0.00000000E+00
  0.00000000E+00  0.00000000E+00  0.00000000E+00
  0.00000000E+00  0.00000000E+00  0.00000000E+00
  0.00000000E+00  0.00000000E+00  0.00000000E+00
  0.00000000E+00  0.00000000E+00  0.00000000E+00
  0.00000000E+00  0.00000000E+00  0.00000000E+00
  0.00000000E+00  0.00000000E+00  0.00000000E+00
  0.00000000E+00  0.00000000E+00  0.00000000E+00
  0.00000000E+00  0.00000000E+00  0.00000000E+00
  0.00000000E+00  0.00000000E+00  0.00000000E+00
  0.00000000E+00  0.00000000E+00  0.00000000E+00
  0.00000000E+00  0.00000000E+00  0.00000000E+00
  0.00000000E+00  0.00000000E+00  0.00000000E+00
  0.00000000E+00  0.00000000E+00  0.00000000E+00
  0.00000000E+00  0.00000000E+00  0.00000000E+00
  0.00000000E+00  0.00000000E+00  0.00000000E+00
  0.00000000E+00  0.00000000E+00  0.00000000E+00
  0.00000000E+00  0.00000000E+00  0.00000000E+00
  0.00000000E+00  0.00000000E+00  0.00000000E+00
  0.00000000E+00  0.00000000E+00  0.00000000E+00
  0.00000000E+00  0.00000000E+00  0.00000000E+00
  0.00000000E+00  0.00000000E+00  0.00000000E+00
  0.00000000E+00  0.00000000E+00  0.00000000E+00
  0.00000000E+00  0.00000000E+00  0.00000000E+00
  0.00000000E+00  0.00000000E+00  0.00000000E+00
