Nb Mo Ta Ti  W                          
   1.00000000000000     
    -3.1310261911452701   -3.1495956679026835   -3.1471378109165506
     1.6063335962714809    1.6182554675726812   -7.9520648550854016
     8.0226297851281494   -8.0575595590977613   -1.5854406659573699
   Nb   Mo   Ta   Ti   W 
     6     5     6     6     6
Direct
  0.9544158212296862  0.9357572764411581  0.3940562404087363
  0.6276027245668239  0.2677785370500387  0.4009644273295245
  0.4894473195587828 -0.0031842751033081 -0.0021491787308498
 -0.0213699519411778  0.0106873078664303  0.0029013623973215
  0.0886361702481188  0.2080160097023421  0.8047970644164084
  0.0310611366557484  0.0683774678622093  0.5972073690925704
  0.8996609005192192  0.7990681661233964  0.2013570613868332
  0.8021296734715545  0.5937394197163738  0.3996229279316778
  0.7237573201068085  0.4661665686962191  0.1979487289477770
  0.3605011973497650  0.7285558678966927  0.5996805162465998
  0.1264650255730530  0.2727894440887503  0.3992716182524969
  0.8445560815663637  0.6502837481556150  0.0018491414487026
  0.9222046180455756  0.8687791359641271  0.8025788261603974
  0.5779599311772443  0.1298691248347653  0.2012778050819382
  0.4054134088712950  0.7942676788092863  0.1984921825825352
  0.4303865273475577  0.8565151484419962  0.7971651850471451
  0.2974558868997526  0.6029775150056228  0.4038661571366026
  0.8537953606175108  0.7337992670961074  0.5980048158143855
  0.4614937779968480  0.9285794821689838  0.4080387301827047
  0.3297204028742132  0.3384767180265774 -0.0025913637627097
  0.2481545035589304  0.5377944869851389  0.7947779822664215
  0.1907294488102417  0.3924935157747860  0.5995402255485942
  0.0742525008883818  0.1511059618673171  0.1997795315531165
  0.7478279925283614  0.5250505648041343  0.8014908034136450
  0.6864359766245232  0.4083782871838433  0.6032403755477174
  0.5921804523915662  0.1993588833468741  0.7909888644943881
  0.5308503954661591  0.0667155087043067  0.6027252863458052
  0.3349743045838919  0.6618440725525031  0.0001029581161889
  0.2226344224131945  0.4726257799376955  0.2030143553433251
 
  0.00000000E+00  0.00000000E+00  0.00000000E+00
  0.00000000E+00  0.00000000E+00  0.00000000E+00
  0.00000000E+00  0.00000000E+00  0.00000000E+00
  0.00000000E+00  0.00000000E+00  0.00000000E+00
  0.00000000E+00  0.00000000E+00  0.00000000E+00
  0.00000000E+00  0.00000000E+00  0.00000000E+00
  0.00000000E+00  0.00000000E+00  0.00000000E+00
  0.00000000E+00  0.00000000E+00  0.00000000E+00
  0.00000000E+00  0.00000000E+00  0.00000000E+00
  0.00000000E+00  0.00000000E+00  0.00000000E+00
  0.00000000E+00  0.00000000E+00  0.00000000E+00
  0.00000000E+00  0.00000000E+00  0.00000000E+00
  0.00000000E+00  0.00000000E+00  0.00000000E+00
  0.00000000E+00  0.00000000E+00  0.00000000E+00
  0.00000000E+00  0.00000000E+00  0.00000000E+00
  0.00000000E+00  0.00000000E+00  0.00000000E+00
  0.00000000E+00  0.00000000E+00  0.00000000E+00
  0.00000000E+00  0.00000000E+00  0.00000000E+00
  0.00000000E+00  0.00000000E+00  0.00000000E+00
  0.00000000E+00  0.00000000E+00  0.00000000E+00
  0.00000000E+00  0.00000000E+00  0.00000000E+00
  0.00000000E+00  0.00000000E+00  0.00000000E+00
  0.00000000E+00  0.00000000E+00  0.00000000E+00
  0.00000000E+00  0.00000000E+00  0.00000000E+00
  0.00000000E+00  0.00000000E+00  0.00000000E+00
  0.00000000E+00  0.00000000E+00  0.00000000E+00
  0.00000000E+00  0.00000000E+00  0.00000000E+00
  0.00000000E+00  0.00000000E+00  0.00000000E+00
  0.00000000E+00  0.00000000E+00  0.00000000E+00
