Nb Mo Ta Ti  W                          
   1.00000000000000     
    -3.1931984087874019   -3.1980666799713986   -3.2033311100473063
     1.5703819591454318    1.5332227786947514   -7.9164783488331087
     7.9401585710755000   -7.9342852389246632   -1.6194191508922666
   Nb   Mo   Ta   Ti   W 
     6     6     6     5     6
Direct
  0.9613354016193162  0.9320928155384615  0.3986538339787747
  0.6356113991810146  0.2640328892237757  0.4006454787576385
  0.4985383495371004  0.0025174570054917 -0.0035473457561654
 -0.0003866081422948  0.0022184892386527  0.0034455788882717
  0.1008718673212649  0.2156091028930401  0.7864379024270376
  0.0361822840923036  0.0681395872292559  0.5956849608375682
  0.9036532423856651  0.7960894403380713  0.2049999543827808
  0.8007809866031675  0.5927638664163296  0.3993398647286063
  0.7315161176213675  0.4658449272374257  0.2021109343505830
  0.6655743580155854  0.3388861811906115 -0.0036584001661399
  0.3743380510953427  0.7313342829985179  0.6007997855546132
  0.1314449296219318  0.2774508098578631  0.4048841828435593
  0.8329208680833994  0.6646179144670338  0.0026029256015348
  0.9291538424969130  0.8710259739135295  0.7966475035204743
  0.5618194757974925  0.1330501945126900  0.1980782161997758
  0.4050775849584199  0.7925000302827041  0.2002210886888572
  0.4373547679189099  0.8607203728994378  0.7949991059280606
  0.2990913183582468  0.5921216082188248  0.4135148847640473
  0.8743498607412420  0.7157645976067297  0.5986084496889439
  0.4648882017877002  0.9271523863032147  0.4087538558972372
  0.1732909623351001  0.3334498224563213 -0.0015908622524917
  0.2690091987273333  0.5314849402293665  0.7875545954318361
  0.0601758917474603  0.1445804596795315  0.2051503935344935
  0.7626318746326256  0.5301908283550545  0.8011347502117118
  0.6923265978999670  0.4089674891467132  0.6028888027805599
  0.6028786628682606  0.2025748343133375  0.7966334319766333
  0.5331906366122534  0.0793598553987125  0.6030028410202753
  0.3324948940014315  0.6575753262407634  0.0005489154304058
  0.2298849820814691  0.4678835168085260  0.2014543707505158
 
  0.00000000E+00  0.00000000E+00  0.00000000E+00
  0.00000000E+00  0.00000000E+00  0.00000000E+00
  0.00000000E+00  0.00000000E+00  0.00000000E+00
  0.00000000E+00  0.00000000E+00  0.00000000E+00
  0.00000000E+00  0.00000000E+00  0.00000000E+00
  0.00000000E+00  0.00000000E+00  0.00000000E+00
  0.00000000E+00  0.00000000E+00  0.00000000E+00
  0.00000000E+00  0.00000000E+00  0.00000000E+00
  0.00000000E+00  0.00000000E+00  0.00000000E+00
  0.00000000E+00  0.00000000E+00  0.00000000E+00
  0.00000000E+00  0.00000000E+00  0.00000000E+00
  0.00000000E+00  0.00000000E+00  0.00000000E+00
  0.00000000E+00  0.00000000E+00  0.00000000E+00
  0.00000000E+00  0.00000000E+00  0.00000000E+00
  0.00000000E+00  0.00000000E+00  0.00000000E+00
  0.00000000E+00  0.00000000E+00  0.00000000E+00
  0.00000000E+00  0.00000000E+00  0.00000000E+00
  0.00000000E+00  0.00000000E+00  0.00000000E+00
  0.00000000E+00  0.00000000E+00  0.00000000E+00
  0.00000000E+00  0.00000000E+00  0.00000000E+00
  0.00000000E+00  0.00000000E+00  0.00000000E+00
  0.00000000E+00  0.00000000E+00  0.00000000E+00
  0.00000000E+00  0.00000000E+00  0.00000000E+00
  0.00000000E+00  0.00000000E+00  0.00000000E+00
  0.00000000E+00  0.00000000E+00  0.00000000E+00
  0.00000000E+00  0.00000000E+00  0.00000000E+00
  0.00000000E+00  0.00000000E+00  0.00000000E+00
  0.00000000E+00  0.00000000E+00  0.00000000E+00
  0.00000000E+00  0.00000000E+00  0.00000000E+00
