Nb Mo Ta Ti  V                          
   1.00000000000000     
    -3.1624174176679438   -3.1915598440416493   -3.2030606158857080
     1.5785092841486277    1.3769316470975426   -7.7867508910308398
     7.9216830366953639   -7.8492797012947246   -1.7456445175517321
   Nb   Mo   Ta   Ti   V 
     6     6     5     6     6
Direct
  0.0046141627939567  0.8815777995294964  0.4053763588958124
  0.6240552977214281  0.2767968289121545  0.3988976579942899
  0.4936588124785725  0.0056203920084446 -0.0036662114436042
 -0.0000679319510438  0.0025161128798711  0.0039029122550901
  0.0976644271721949  0.2207262318140982  0.7866113137685748
  0.0384517236900918  0.0729741892137103  0.5924722175027147
  0.9012238612762247  0.7870980266809924  0.2064280683464983
  0.7856223746179207  0.5903213416519580  0.4041166200002659
  0.7340427471834315  0.4596646424725391  0.1985999560261477
  0.6597196048434887  0.3434841366997258 -0.0053190680288215
  0.3727502376944034  0.7229114563640069  0.6019208898633372
  0.1307167861928789  0.2728063466000779  0.3962457968161439
  0.8282063990735374  0.6658321629013558  0.0072665886932274
  0.9234979698712307  0.8785977486223731  0.7992419466206291
  0.5665355748862348  0.1315321742015388  0.1979609785798017
  0.4026819101881932  0.7756952657609759  0.2116779235610377
  0.4347065000718836  0.8632940333298033  0.7987658702471716
  0.8501097319591246  0.7296236649037995  0.6108256284765321
  0.4793783446369531  0.9313004957145471  0.4127188456265631
  0.1703834157084717  0.3389700964072375 -0.0012457393448346
  0.2709877156968667  0.5343335627860625  0.7902250167050786
  0.2106615813049573  0.4269398937042294  0.5650984315850691
  0.0658496295844333  0.1359068480090027  0.2112753607278933
  0.7563565870839408  0.5274821125204895  0.8063872642959630
  0.6988424690735235  0.4098429787129797  0.6040901637227896
  0.6000483602179225  0.2100584481459685  0.7873534096204203
  0.5421750447957985  0.0821415499744684  0.6037657343783149
  0.3343419611361118  0.6505886298984171  0.0028263641528183
  0.2227847009972854  0.4713628295796674  0.2061797003550777
 
  0.00000000E+00  0.00000000E+00  0.00000000E+00
  0.00000000E+00  0.00000000E+00  0.00000000E+00
  0.00000000E+00  0.00000000E+00  0.00000000E+00
  0.00000000E+00  0.00000000E+00  0.00000000E+00
  0.00000000E+00  0.00000000E+00  0.00000000E+00
  0.00000000E+00  0.00000000E+00  0.00000000E+00
  0.00000000E+00  0.00000000E+00  0.00000000E+00
  0.00000000E+00  0.00000000E+00  0.00000000E+00
  0.00000000E+00  0.00000000E+00  0.00000000E+00
  0.00000000E+00  0.00000000E+00  0.00000000E+00
  0.00000000E+00  0.00000000E+00  0.00000000E+00
  0.00000000E+00  0.00000000E+00  0.00000000E+00
  0.00000000E+00  0.00000000E+00  0.00000000E+00
  0.00000000E+00  0.00000000E+00  0.00000000E+00
  0.00000000E+00  0.00000000E+00  0.00000000E+00
  0.00000000E+00  0.00000000E+00  0.00000000E+00
  0.00000000E+00  0.00000000E+00  0.00000000E+00
  0.00000000E+00  0.00000000E+00  0.00000000E+00
  0.00000000E+00  0.00000000E+00  0.00000000E+00
  0.00000000E+00  0.00000000E+00  0.00000000E+00
  0.00000000E+00  0.00000000E+00  0.00000000E+00
  0.00000000E+00  0.00000000E+00  0.00000000E+00
  0.00000000E+00  0.00000000E+00  0.00000000E+00
  0.00000000E+00  0.00000000E+00  0.00000000E+00
  0.00000000E+00  0.00000000E+00  0.00000000E+00
  0.00000000E+00  0.00000000E+00  0.00000000E+00
  0.00000000E+00  0.00000000E+00  0.00000000E+00
  0.00000000E+00  0.00000000E+00  0.00000000E+00
  0.00000000E+00  0.00000000E+00  0.00000000E+00
