Nb Mo Ta Ti  W                          
   1.00000000000000     
    -3.1906019532630636   -3.1821913328490421   -3.2138375017008745
     1.5202502159963056    1.5127871469577630   -7.8813981832523776
     7.9903906637800821   -7.9913351086034643   -1.5847169155280740
   Nb   Mo   Ta   Ti   W 
     6     6     5     6     6
Direct
  0.9609969218411974  0.9339551060364131  0.3953574870341152
  0.6327072054575712  0.2628304250958713  0.4007669444181560
  0.5199648872061493 -0.0128472534175504 -0.0040285530833794
  0.0076922901636356  0.0069821563418667  0.0042092014830236
  0.0981269824620567  0.2045198820354704  0.8027372907055356
  0.0391669254393357  0.0634354242103816  0.5969379006002438
  0.9076033018049058  0.7977226822034396  0.1991167956755247
  0.8072374437999950  0.5908752984406344  0.3987874940654261
  0.7325696620331723  0.4712198298556548  0.1957614086043458
  0.6544489304027358  0.3443273606189507 -0.0015862874726337
  0.3686802055661431  0.7248237472807123  0.6008672387051811
  0.1308598076151474  0.2716846718767344  0.3986772272827113
  0.9276505394286164  0.8546105280327930  0.8111208285583835
  0.5655519443453094  0.1335622282616477  0.1949151947427945
  0.4099903146742741  0.7934418533596582  0.1983405454541767
  0.4307455032372123  0.8570609701731262  0.7969011556885888
  0.3020487974323639  0.6012664675772990  0.4012683406950876
  0.8580699754072946  0.7317679929598803  0.5996232773503452
  0.4695412786677953  0.9264641909505876  0.4060157364401376
  0.1352725734601205  0.3788366499901296  0.0003725357366705
  0.2795954909401154  0.5276517742698363  0.7937382035565756
  0.2004719408872642  0.3885881687624678  0.5974090647696878
  0.0582915777965099  0.1517607533101328  0.2018681611109941
  0.7696493753714515  0.5290014397663758  0.8044740682288096
  0.6952173800558678  0.4052975758854622  0.6030299619136706
  0.6018960641968450  0.1968979850436715  0.7983629618147388
  0.5393539371993155  0.0641857497984611  0.6039107760513053
  0.3333574528606541  0.6613408793173167  0.0000435649955026
  0.2299079602469360  0.4720687919625637  0.2010014748742804
 
  0.00000000E+00  0.00000000E+00  0.00000000E+00
  0.00000000E+00  0.00000000E+00  0.00000000E+00
  0.00000000E+00  0.00000000E+00  0.00000000E+00
  0.00000000E+00  0.00000000E+00  0.00000000E+00
  0.00000000E+00  0.00000000E+00  0.00000000E+00
  0.00000000E+00  0.00000000E+00  0.00000000E+00
  0.00000000E+00  0.00000000E+00  0.00000000E+00
  0.00000000E+00  0.00000000E+00  0.00000000E+00
  0.00000000E+00  0.00000000E+00  0.00000000E+00
  0.00000000E+00  0.00000000E+00  0.00000000E+00
  0.00000000E+00  0.00000000E+00  0.00000000E+00
  0.00000000E+00  0.00000000E+00  0.00000000E+00
  0.00000000E+00  0.00000000E+00  0.00000000E+00
  0.00000000E+00  0.00000000E+00  0.00000000E+00
  0.00000000E+00  0.00000000E+00  0.00000000E+00
  0.00000000E+00  0.00000000E+00  0.00000000E+00
  0.00000000E+00  0.00000000E+00  0.00000000E+00
  0.00000000E+00  0.00000000E+00  0.00000000E+00
  0.00000000E+00  0.00000000E+00  0.00000000E+00
  0.00000000E+00  0.00000000E+00  0.00000000E+00
  0.00000000E+00  0.00000000E+00  0.00000000E+00
  0.00000000E+00  0.00000000E+00  0.00000000E+00
  0.00000000E+00  0.00000000E+00  0.00000000E+00
  0.00000000E+00  0.00000000E+00  0.00000000E+00
  0.00000000E+00  0.00000000E+00  0.00000000E+00
  0.00000000E+00  0.00000000E+00  0.00000000E+00
  0.00000000E+00  0.00000000E+00  0.00000000E+00
  0.00000000E+00  0.00000000E+00  0.00000000E+00
  0.00000000E+00  0.00000000E+00  0.00000000E+00
