Nb Mo Ta Ti  W                          
   1.00000000000000     
    -3.2046295007124512   -3.1905219101079885   -3.1944424843490040
     1.5619458696970894    1.5969238452185566   -7.9475775511936835
     7.8618639290147634   -7.8683149063297186   -1.5555662839352993
   Nb   Mo   Ta   Ti   W 
     6     6     5     6     6
Direct
  0.9541423640306540  0.9348270517529219  0.3956583698257618
  0.6323417853625707  0.2681347568644116  0.4004727410685858
  0.4947483486929751 -0.0070160376943434  0.0103301349139389
 -0.0055959316010441  0.0007220366351795  0.0046337320349051
  0.0990039277205730  0.2029445836529529  0.8006234458282301
  0.0410296715103280  0.0659983128962000  0.5959740307042174
  0.9021769576591696  0.7960450267459949  0.2034966380930642
  0.8094907213885117  0.5934420382699688  0.3960874576364061
  0.7265254608329673  0.4752432706583439  0.1996615504297806
  0.6628317562009097  0.3401527879789724 -0.0012361766557152
  0.3704844037081204  0.7270253480632586  0.5967192416003733
  0.1330873518087109  0.2718762731951974  0.3982131938153509
  0.8348994939205222  0.6637246560994370  0.0041484050573080
  0.9276363584945139  0.8700088798691787  0.8011106801147164
  0.5743745680069497  0.1425602712790197  0.1979159125047243
  0.4363058823703729  0.8572905442507521  0.7988990278321050
  0.3053120099204980  0.6102203749073962  0.3920113817319321
  0.8608803301957659  0.7322422320008275  0.5952070635831300
  0.4683655162630732  0.9238142193150252  0.3993536336182933
  0.1716806434776307  0.3345346712170247  0.0061850104203207
  0.2687204203706093  0.5326255776822166  0.7953193875546366
  0.1979501022443499  0.3936901726080418  0.5947046400444902
  0.0797268793108606  0.1315663978455204  0.2092219461198509
  0.7674205261649377  0.5279126460681318  0.8006493947451283
  0.6901434211841594  0.4086552349904210  0.6001678266662699
  0.5962985345165988  0.2014422625470949  0.7977706988956174
  0.5376624267504279  0.0672306097109148  0.6018280590610179
  0.3316952835952454  0.6625462620929509  0.0059766129420402
  0.2306607858990327  0.4705395384969772  0.1988959598135169
 
  0.00000000E+00  0.00000000E+00  0.00000000E+00
  0.00000000E+00  0.00000000E+00  0.00000000E+00
  0.00000000E+00  0.00000000E+00  0.00000000E+00
  0.00000000E+00  0.00000000E+00  0.00000000E+00
  0.00000000E+00  0.00000000E+00  0.00000000E+00
  0.00000000E+00  0.00000000E+00  0.00000000E+00
  0.00000000E+00  0.00000000E+00  0.00000000E+00
  0.00000000E+00  0.00000000E+00  0.00000000E+00
  0.00000000E+00  0.00000000E+00  0.00000000E+00
  0.00000000E+00  0.00000000E+00  0.00000000E+00
  0.00000000E+00  0.00000000E+00  0.00000000E+00
  0.00000000E+00  0.00000000E+00  0.00000000E+00
  0.00000000E+00  0.00000000E+00  0.00000000E+00
  0.00000000E+00  0.00000000E+00  0.00000000E+00
  0.00000000E+00  0.00000000E+00  0.00000000E+00
  0.00000000E+00  0.00000000E+00  0.00000000E+00
  0.00000000E+00  0.00000000E+00  0.00000000E+00
  0.00000000E+00  0.00000000E+00  0.00000000E+00
  0.00000000E+00  0.00000000E+00  0.00000000E+00
  0.00000000E+00  0.00000000E+00  0.00000000E+00
  0.00000000E+00  0.00000000E+00  0.00000000E+00
  0.00000000E+00  0.00000000E+00  0.00000000E+00
  0.00000000E+00  0.00000000E+00  0.00000000E+00
  0.00000000E+00  0.00000000E+00  0.00000000E+00
  0.00000000E+00  0.00000000E+00  0.00000000E+00
  0.00000000E+00  0.00000000E+00  0.00000000E+00
  0.00000000E+00  0.00000000E+00  0.00000000E+00
  0.00000000E+00  0.00000000E+00  0.00000000E+00
  0.00000000E+00  0.00000000E+00  0.00000000E+00
