Nb Mo Ta Ti  V                          
   1.00000000000000     
    -3.1061622892196183   -3.1920030095716365   -3.1143556454832364
     1.7198893746088200    1.5218504004467146   -7.8769709796517517
     7.8412600666997285   -7.8409970634962045   -1.7728968972583456
   Nb   Mo   Ta   Ti   V 
     6     6     6     5     6
Direct
  0.9799538642762499  0.9536951965633716  0.3723131390764809
  0.6217999088260049  0.2713590077101506  0.4042687600622607
  0.5080628326629705  0.0019496009731311 -0.0102900320655500
 -0.0047885606387278  0.0083643870098925  0.0106150346014415
  0.0933521418213945  0.2059294632092941  0.8007338851589187
  0.0423670492163211  0.0726098995229634  0.5909910759685938
  0.8990578376581194  0.7914696260350050  0.2001571753878927
  0.8092732768867873  0.5961917714428746  0.4002786530085407
  0.7340765911866629  0.4535708861913010  0.2012538121940623
  0.6439025996084474  0.3467828487452401 -0.0030076196417845
  0.3716049887668428  0.7253253314673465  0.6030048611511630
  0.1319295855158080  0.2763941762918555  0.3909313678823569
  0.8391732738447625  0.6573782618569183  0.0045320292366929
  0.9270576835270221  0.8714213032284623  0.7956850229651528
  0.5440555985848547  0.1383900578412244  0.1973063520574298
  0.3984937296283325  0.8021028153276859  0.1949189760549516
  0.4371502420592755  0.8543921553310597  0.7968565830922500
  0.3017067209295700  0.6050496493681452  0.4029608284026746
  0.8634759217282043  0.7306662081257281  0.5975127466183328
  0.4880330166085688  0.9223678635659625  0.4117796022326002
  0.1540150083732108  0.3248602734227744  0.0186793503365468
  0.2705164763625503  0.5295204509586947  0.7987797996170453
  0.2021756917892264  0.3928293443629748  0.6029291487808515
  0.7666848261968214  0.5200612562371285  0.8073991125759279
  0.6905020415241878  0.4098796811077725  0.6080629349761004
  0.5969557347694954  0.2074182389830354  0.7917350087594451
  0.5484254088426610  0.0706189172715033  0.6058200462137605
  0.3410474556546064  0.6496701136971981  0.0019783487338317
  0.2332723837897807  0.4763978841512985  0.2018139965620259
 
  0.00000000E+00  0.00000000E+00  0.00000000E+00
  0.00000000E+00  0.00000000E+00  0.00000000E+00
  0.00000000E+00  0.00000000E+00  0.00000000E+00
  0.00000000E+00  0.00000000E+00  0.00000000E+00
  0.00000000E+00  0.00000000E+00  0.00000000E+00
  0.00000000E+00  0.00000000E+00  0.00000000E+00
  0.00000000E+00  0.00000000E+00  0.00000000E+00
  0.00000000E+00  0.00000000E+00  0.00000000E+00
  0.00000000E+00  0.00000000E+00  0.00000000E+00
  0.00000000E+00  0.00000000E+00  0.00000000E+00
  0.00000000E+00  0.00000000E+00  0.00000000E+00
  0.00000000E+00  0.00000000E+00  0.00000000E+00
  0.00000000E+00  0.00000000E+00  0.00000000E+00
  0.00000000E+00  0.00000000E+00  0.00000000E+00
  0.00000000E+00  0.00000000E+00  0.00000000E+00
  0.00000000E+00  0.00000000E+00  0.00000000E+00
  0.00000000E+00  0.00000000E+00  0.00000000E+00
  0.00000000E+00  0.00000000E+00  0.00000000E+00
  0.00000000E+00  0.00000000E+00  0.00000000E+00
  0.00000000E+00  0.00000000E+00  0.00000000E+00
  0.00000000E+00  0.00000000E+00  0.00000000E+00
  0.00000000E+00  0.00000000E+00  0.00000000E+00
  0.00000000E+00  0.00000000E+00  0.00000000E+00
  0.00000000E+00  0.00000000E+00  0.00000000E+00
  0.00000000E+00  0.00000000E+00  0.00000000E+00
  0.00000000E+00  0.00000000E+00  0.00000000E+00
  0.00000000E+00  0.00000000E+00  0.00000000E+00
  0.00000000E+00  0.00000000E+00  0.00000000E+00
  0.00000000E+00  0.00000000E+00  0.00000000E+00
