Nb Mo Ta Ti  V                          
   1.00000000000000     
    -3.1957015890677871   -3.1147751089188964   -3.1206628379239398
     1.5827765685719530    1.6524519821775256   -7.8809240818124549
     7.8656899603509434   -7.7399969093733683   -1.4816707077476992
   Nb   Mo   Ta   Ti   V 
     6     5     6     6     6
Direct
  0.9444019920589518  0.9148454826771009  0.3599623077099035
  0.6291125460625598  0.2649491851724431  0.4039157491377280
  0.4947573616005636  0.0097545047924800 -0.0064297769925510
  0.0015613692559446 -0.0076317018140317  0.0179413557732064
  0.0978089378264806  0.2045662582069422  0.7979531296880558
  0.0303029491577015  0.0607990856200746  0.5940346584335063
  0.8033008674428761  0.5934091646684532  0.4002028545587747
  0.7304919374104328  0.4736464334811795  0.2026592474905085
  0.6677744609496097  0.3498624225088836 -0.0053999652687488
  0.3639067356083078  0.7213089486511176  0.6009521060134106
  0.1307059680351481  0.2702294314138380  0.4024277712168947
  0.8495650039485561  0.6713155206993102  0.0116484837242445
  0.9287751363338127  0.8697631416300967  0.8003022488350504
  0.5695714587239926  0.1415773583754456  0.1949652137123908
  0.4227338785343949  0.7984803371577190  0.1974718538009227
  0.4397822334810436  0.8548804987402754  0.7976396721663296
  0.3007515548366477  0.5988739032657268  0.4021152130527474
  0.8545401565539631  0.7232643128913653  0.5971318708114078
  0.4483824956881414  0.9312244791023532  0.4119563596802008
  0.1746751948640340  0.3480496211717102  0.0020759248569617
  0.2719669009291361  0.5312800533605263  0.7948272011207990
  0.1920082370824600  0.3857683054948871  0.5958038772812365
  0.0720189596861065  0.1599217035160033  0.2084001797560932
  0.7696760996792300  0.5185403387033773  0.8067833960729436
  0.6851927880216538  0.4029655788268902  0.6088718761629313
  0.6016151043056964  0.2059860315536333  0.7927093312616327
  0.5388982609387702  0.0646829766719174  0.6102708212590794
  0.3597904077313355  0.6529931323169218 -0.0025099832861726
  0.2259310032524649  0.4846934911433549  0.2013170219705098
 
  0.00000000E+00  0.00000000E+00  0.00000000E+00
  0.00000000E+00  0.00000000E+00  0.00000000E+00
  0.00000000E+00  0.00000000E+00  0.00000000E+00
  0.00000000E+00  0.00000000E+00  0.00000000E+00
  0.00000000E+00  0.00000000E+00  0.00000000E+00
  0.00000000E+00  0.00000000E+00  0.00000000E+00
  0.00000000E+00  0.00000000E+00  0.00000000E+00
  0.00000000E+00  0.00000000E+00  0.00000000E+00
  0.00000000E+00  0.00000000E+00  0.00000000E+00
  0.00000000E+00  0.00000000E+00  0.00000000E+00
  0.00000000E+00  0.00000000E+00  0.00000000E+00
  0.00000000E+00  0.00000000E+00  0.00000000E+00
  0.00000000E+00  0.00000000E+00  0.00000000E+00
  0.00000000E+00  0.00000000E+00  0.00000000E+00
  0.00000000E+00  0.00000000E+00  0.00000000E+00
  0.00000000E+00  0.00000000E+00  0.00000000E+00
  0.00000000E+00  0.00000000E+00  0.00000000E+00
  0.00000000E+00  0.00000000E+00  0.00000000E+00
  0.00000000E+00  0.00000000E+00  0.00000000E+00
  0.00000000E+00  0.00000000E+00  0.00000000E+00
  0.00000000E+00  0.00000000E+00  0.00000000E+00
  0.00000000E+00  0.00000000E+00  0.00000000E+00
  0.00000000E+00  0.00000000E+00  0.00000000E+00
  0.00000000E+00  0.00000000E+00  0.00000000E+00
  0.00000000E+00  0.00000000E+00  0.00000000E+00
  0.00000000E+00  0.00000000E+00  0.00000000E+00
  0.00000000E+00  0.00000000E+00  0.00000000E+00
  0.00000000E+00  0.00000000E+00  0.00000000E+00
  0.00000000E+00  0.00000000E+00  0.00000000E+00
