Nb - Mo - Ta - Ti - V SQS-30 BCC        
   3.17000000000000     
    -1.0000000000000000   -1.0000000000000000   -1.0000000000000000
     0.5000000000000000    0.5000000000000000   -2.5000000000000000
     2.5000000000000000   -2.5000000000000000   -0.5000000000000000
   Nb   Mo   Ta   Ti   V 
     6     6     6     6     6
Direct
  0.9666666700000022  0.9333333299999964  0.3999999999999986
  0.6333333299999993  0.2666666699999993  0.3999999999999986
  0.5000000000000000  0.0000000000000000  0.0000000000000000
  0.0000000000000000  0.0000000000000000  0.0000000000000000
  0.1000000000000014  0.2000000000000028  0.7999999999999972
  0.0333333299999978  0.0666666699999965  0.6000000000000014
  0.8999999999999986  0.7999999999999972  0.2000000000000028
  0.7999999999999972  0.6000000000000014  0.3999999999999986
  0.7333333300000007  0.4666666700000022  0.2000000000000028
  0.6666666699999979  0.3333333300000021  0.0000000000000000
  0.3666666700000007  0.7333333300000007  0.6000000000000014
  0.1333333299999993  0.2666666699999993  0.3999999999999986
  0.8333333300000021  0.6666666699999979  0.0000000000000000
  0.9333333299999964  0.8666666700000007  0.7999999999999972
  0.5666666700000036  0.1333333299999993  0.2000000000000028
  0.3999999999999986  0.7999999999999972  0.2000000000000028
  0.4333333300000035  0.8666666700000007  0.7999999999999972
  0.2999999999999972  0.6000000000000014  0.3999999999999986
  0.8666666700000007  0.7333333300000007  0.6000000000000014
  0.4666666700000022  0.9333333299999964  0.3999999999999986
  0.1666666699999979  0.3333333300000021  0.0000000000000000
  0.2666666699999993  0.5333333299999978  0.7999999999999972
  0.2000000000000028  0.3999999999999986  0.6000000000000014
  0.0666666699999965  0.1333333299999993  0.2000000000000028
  0.7666666699999993  0.5333333299999978  0.7999999999999972
  0.7000000000000028  0.3999999999999986  0.6000000000000014
  0.6000000000000014  0.2000000000000028  0.7999999999999972
  0.5333333299999978  0.0666666699999965  0.6000000000000014
  0.3333333300000021  0.6666666699999979  0.0000000000000000
  0.2333333300000007  0.4666666700000022  0.2000000000000028
 
  0.00000000E+00  0.00000000E+00  0.00000000E+00
  0.00000000E+00  0.00000000E+00  0.00000000E+00
  0.00000000E+00  0.00000000E+00  0.00000000E+00
  0.00000000E+00  0.00000000E+00  0.00000000E+00
  0.00000000E+00  0.00000000E+00  0.00000000E+00
  0.00000000E+00  0.00000000E+00  0.00000000E+00
  0.00000000E+00  0.00000000E+00  0.00000000E+00
  0.00000000E+00  0.00000000E+00  0.00000000E+00
  0.00000000E+00  0.00000000E+00  0.00000000E+00
  0.00000000E+00  0.00000000E+00  0.00000000E+00
  0.00000000E+00  0.00000000E+00  0.00000000E+00
  0.00000000E+00  0.00000000E+00  0.00000000E+00
  0.00000000E+00  0.00000000E+00  0.00000000E+00
  0.00000000E+00  0.00000000E+00  0.00000000E+00
  0.00000000E+00  0.00000000E+00  0.00000000E+00
  0.00000000E+00  0.00000000E+00  0.00000000E+00
  0.00000000E+00  0.00000000E+00  0.00000000E+00
  0.00000000E+00  0.00000000E+00  0.00000000E+00
  0.00000000E+00  0.00000000E+00  0.00000000E+00
  0.00000000E+00  0.00000000E+00  0.00000000E+00
  0.00000000E+00  0.00000000E+00  0.00000000E+00
  0.00000000E+00  0.00000000E+00  0.00000000E+00
  0.00000000E+00  0.00000000E+00  0.00000000E+00
  0.00000000E+00  0.00000000E+00  0.00000000E+00
  0.00000000E+00  0.00000000E+00  0.00000000E+00
  0.00000000E+00  0.00000000E+00  0.00000000E+00
  0.00000000E+00  0.00000000E+00  0.00000000E+00
  0.00000000E+00  0.00000000E+00  0.00000000E+00
  0.00000000E+00  0.00000000E+00  0.00000000E+00
  0.00000000E+00  0.00000000E+00  0.00000000E+00
