SYSTEM = Swap Nb to Mo
ICHARG = 2
ENCUT = 600
ISMEAR = 1
SIGMA = 0.2
NCORE = 4
IBRION = 2
ISIF = 3
NSW = 50
IALGO = 38
ISYM = 0
GGA = PS
LREAL = Auto
