Nb Mo Ta Ti  V                          
   1.00000000000000     
    -3.1551635360514405   -3.1396041540926674   -3.2211177276824392
     1.4385669642577918    1.4847474414604884   -7.8285205125886632
     7.8775082510484529   -7.9195903605733919   -1.5284314639968135
   Nb   Mo   Ta   Ti   V 
     5     6     6     6     6
Direct
  0.9189320643522817  0.9658367415863441  0.3990084297390356
  0.4972937292328348  0.0038153269682509 -0.0016241956576402
 -0.0078389708050849  0.0078113120837514  0.0036169947482632
  0.0964518869480916  0.2078042241166008  0.7952454455629089
  0.0393694651094916  0.0711738362281240  0.5968120478072171
  0.9034833380157925  0.7981302348259031  0.2059564314055184
  0.8165678949959216  0.5870789100010277  0.3984180214506567
  0.7317980206849917  0.4651670023707140  0.2043242651223036
  0.6601598277041562  0.3468611846608439 -0.0027659551065763
  0.3699989300628239  0.7186191522579799  0.5976678639461258
  0.1535820397502789  0.2688458406647564  0.3989033905268976
  0.8358188176347220  0.6669955437057985  0.0006211261755943
  0.9212398741680112  0.8736756648804366  0.7953166902683363
  0.5605204368914902  0.1482983368508025  0.2111662976005992
  0.4050692936829055  0.7899049812622692  0.2000415981770655
  0.4379784845616376  0.8537590519004227  0.7953080818014748
  0.3222964999537587  0.5752178261277561  0.4018258917530796
  0.8563274368857209  0.7298840358683363  0.5938493012827445
  0.4528887364255615  0.9166506555433442  0.4089440224701465
  0.1771891225546400  0.3374471474626939  0.0022272601026209
  0.2756119404368057  0.5309674938729928  0.7942812575939560
  0.1984382349626971  0.3861973730092900  0.5991756914774889
  0.0685175607684797  0.1476434918219219  0.2091164528085814
  0.7657457424689137  0.5228550702059319  0.8025913608555424
  0.6899113833220047  0.4063851204785648  0.6022200701162669
  0.6002174677374459  0.2052440635528128  0.7913366767802978
  0.5498590499000077  0.0700065863264731  0.6000516931087464
  0.3428014535998265  0.6517413673741747 -0.0000348040539517
  0.2264369079938071  0.4793157539916753  0.1963985921367008
 
  0.00000000E+00  0.00000000E+00  0.00000000E+00
  0.00000000E+00  0.00000000E+00  0.00000000E+00
  0.00000000E+00  0.00000000E+00  0.00000000E+00
  0.00000000E+00  0.00000000E+00  0.00000000E+00
  0.00000000E+00  0.00000000E+00  0.00000000E+00
  0.00000000E+00  0.00000000E+00  0.00000000E+00
  0.00000000E+00  0.00000000E+00  0.00000000E+00
  0.00000000E+00  0.00000000E+00  0.00000000E+00
  0.00000000E+00  0.00000000E+00  0.00000000E+00
  0.00000000E+00  0.00000000E+00  0.00000000E+00
  0.00000000E+00  0.00000000E+00  0.00000000E+00
  0.00000000E+00  0.00000000E+00  0.00000000E+00
  0.00000000E+00  0.00000000E+00  0.00000000E+00
  0.00000000E+00  0.00000000E+00  0.00000000E+00
  0.00000000E+00  0.00000000E+00  0.00000000E+00
  0.00000000E+00  0.00000000E+00  0.00000000E+00
  0.00000000E+00  0.00000000E+00  0.00000000E+00
  0.00000000E+00  0.00000000E+00  0.00000000E+00
  0.00000000E+00  0.00000000E+00  0.00000000E+00
  0.00000000E+00  0.00000000E+00  0.00000000E+00
  0.00000000E+00  0.00000000E+00  0.00000000E+00
  0.00000000E+00  0.00000000E+00  0.00000000E+00
  0.00000000E+00  0.00000000E+00  0.00000000E+00
  0.00000000E+00  0.00000000E+00  0.00000000E+00
  0.00000000E+00  0.00000000E+00  0.00000000E+00
  0.00000000E+00  0.00000000E+00  0.00000000E+00
  0.00000000E+00  0.00000000E+00  0.00000000E+00
  0.00000000E+00  0.00000000E+00  0.00000000E+00
  0.00000000E+00  0.00000000E+00  0.00000000E+00
