Nb Mo Ta Ti  V                          
   1.00000000000000     
    -3.2260839139461357   -3.1625941809876905   -3.1884738562101074
     1.4655975991507089    1.6148397014564440   -7.8572908797821110
     7.8088737417607117   -7.8207948964360146   -1.4244960215003803
   Nb   Mo   Ta   Ti   V 
     6     6     6     6     5
Direct
  0.9568351400239697  0.9288419425315287  0.3954899909214128
  0.6347574692138356  0.2623949619495371  0.4087345169970163
  0.4980890514806832  0.0086123459145806 -0.0014997438298693
 -0.0031775185786573  0.0061626198671625  0.0028061981427846
  0.1022412869969235  0.2077570253629625  0.7972305967490034
  0.0396714685930881  0.0631440450309614  0.5983576695601581
  0.9034081563895499  0.7972379865402727  0.1992546819691929
  0.8030444489827234  0.5908742025914521  0.3962039700605035
  0.7364243857544922  0.4716999387607547  0.1982625332955739
  0.6714495118039295  0.3457343482482022 -0.0072656878346325
  0.3705963706125529  0.7187107742618345  0.6008981724547673
  0.1312382807605291  0.2700819745076937  0.4024405887746779
  0.8361790486467420  0.6696425789300701 -0.0002609061917688
  0.9274628265325553  0.8726443012039000  0.7974431218566654
  0.5433846311815471  0.1679655855785850  0.1968768073904626
  0.4069080261470870  0.7958614226972093  0.1944001747780692
  0.4395032782399391  0.8552914974620064  0.7956149762501897
  0.3016853425140875  0.5946485245342824  0.3940303129364583
  0.8596921707187717  0.7224259528558399  0.5958915246851859
  0.4626631703223161  0.9271376380926706  0.4055353134285173
  0.1765586505992623  0.3476469266619858  0.0102589715428215
  0.2750900828539485  0.5287595537739165  0.7992796026707496
  0.2016285805768102  0.3859057676902165  0.5942490115889463
  0.0538745491397236  0.1449749158911171  0.2080212243413279
  0.7644499726819224  0.5184099301523132  0.8056764035530573
  0.6830956730178925  0.4088807396481292  0.6061155981689653
  0.5972082190558673  0.2049875150701158  0.7949961676505092
  0.5439352535411702  0.0647413884198383  0.6098728192397204
  0.3487691421967503  0.6521569257708528  0.0010853888495296
 
  0.00000000E+00  0.00000000E+00  0.00000000E+00
  0.00000000E+00  0.00000000E+00  0.00000000E+00
  0.00000000E+00  0.00000000E+00  0.00000000E+00
  0.00000000E+00  0.00000000E+00  0.00000000E+00
  0.00000000E+00  0.00000000E+00  0.00000000E+00
  0.00000000E+00  0.00000000E+00  0.00000000E+00
  0.00000000E+00  0.00000000E+00  0.00000000E+00
  0.00000000E+00  0.00000000E+00  0.00000000E+00
  0.00000000E+00  0.00000000E+00  0.00000000E+00
  0.00000000E+00  0.00000000E+00  0.00000000E+00
  0.00000000E+00  0.00000000E+00  0.00000000E+00
  0.00000000E+00  0.00000000E+00  0.00000000E+00
  0.00000000E+00  0.00000000E+00  0.00000000E+00
  0.00000000E+00  0.00000000E+00  0.00000000E+00
  0.00000000E+00  0.00000000E+00  0.00000000E+00
  0.00000000E+00  0.00000000E+00  0.00000000E+00
  0.00000000E+00  0.00000000E+00  0.00000000E+00
  0.00000000E+00  0.00000000E+00  0.00000000E+00
  0.00000000E+00  0.00000000E+00  0.00000000E+00
  0.00000000E+00  0.00000000E+00  0.00000000E+00
  0.00000000E+00  0.00000000E+00  0.00000000E+00
  0.00000000E+00  0.00000000E+00  0.00000000E+00
  0.00000000E+00  0.00000000E+00  0.00000000E+00
  0.00000000E+00  0.00000000E+00  0.00000000E+00
  0.00000000E+00  0.00000000E+00  0.00000000E+00
  0.00000000E+00  0.00000000E+00  0.00000000E+00
  0.00000000E+00  0.00000000E+00  0.00000000E+00
  0.00000000E+00  0.00000000E+00  0.00000000E+00
  0.00000000E+00  0.00000000E+00  0.00000000E+00
