Nb Mo Ta Ti  V                          
   1.00000000000000     
    -3.1855969902225221   -3.1293574758483431   -3.1270123521838600
     1.5682681959901128    1.6148095401475819   -7.8432713010233295
     7.8964650727135943   -7.8129163779262152   -1.5052557918456322
   Nb   Mo   Ta   Ti   V 
     6     5     6     6     6
Direct
  0.9472905681712444  0.9307769176720626  0.3972492411545828
  0.6084449867788818  0.2655799315160592  0.4043553794846899
  0.5041829248957359  0.0051701443174111 -0.0064324516012307
  0.0031162029288932  0.0100699951034608  0.0031879848240765
  0.0970817818284814  0.2088425316377784  0.7924406728279157
  0.0366626524702881  0.0750525698885592  0.5859319820328247
  0.9106807012395172  0.7982026976826591  0.2005323219944318
  0.8109434228022471  0.5782650631262548  0.3983268187411431
  0.7298124391132165  0.4731301425315385  0.2011315343095275
  0.6632683790150496  0.3497368036129048 -0.0065351937213965
  0.3691458961110322  0.7211148724294790  0.6014642689165945
  0.8416399697548407  0.6671142649639059  0.0010310879807968
  0.9264909240053839  0.8706852781024607  0.7948216196030505
  0.5822766839444444  0.1404017905765736  0.1908924143692335
  0.4088937108921840  0.8001323719277045  0.1992766012652737
  0.4345449112242719  0.8553572308371071  0.7967176002511496
  0.3021363584778792  0.6013030913852204  0.4024204629638150
  0.8597358781641515  0.7166601644622174  0.5984362806769439
  0.4642852559230987  0.9304381103334548  0.4122894026126399
  0.1722698200933049  0.3393667238734994  0.0046673389851625
  0.2660757656969269  0.5283146566190967  0.7930807564319337
  0.1877590649894011  0.3739232307197524  0.5792199352874845
  0.0799696103455160  0.1680253378644230  0.2382857251577261
  0.7606409850617836  0.5200235677634378  0.8070670222720331
  0.6668870720499691  0.4056796745016240  0.6090702041226737
  0.6001402338020392  0.2043084796032268  0.7919332638550468
  0.5615254605726216  0.0599228949635308  0.6137447254462615
  0.3413479748635385  0.6551674650619331 -0.0030998084995855
  0.2294170347840724  0.4805673269226578  0.1984928082552029
 
  0.00000000E+00  0.00000000E+00  0.00000000E+00
  0.00000000E+00  0.00000000E+00  0.00000000E+00
  0.00000000E+00  0.00000000E+00  0.00000000E+00
  0.00000000E+00  0.00000000E+00  0.00000000E+00
  0.00000000E+00  0.00000000E+00  0.00000000E+00
  0.00000000E+00  0.00000000E+00  0.00000000E+00
  0.00000000E+00  0.00000000E+00  0.00000000E+00
  0.00000000E+00  0.00000000E+00  0.00000000E+00
  0.00000000E+00  0.00000000E+00  0.00000000E+00
  0.00000000E+00  0.00000000E+00  0.00000000E+00
  0.00000000E+00  0.00000000E+00  0.00000000E+00
  0.00000000E+00  0.00000000E+00  0.00000000E+00
  0.00000000E+00  0.00000000E+00  0.00000000E+00
  0.00000000E+00  0.00000000E+00  0.00000000E+00
  0.00000000E+00  0.00000000E+00  0.00000000E+00
  0.00000000E+00  0.00000000E+00  0.00000000E+00
  0.00000000E+00  0.00000000E+00  0.00000000E+00
  0.00000000E+00  0.00000000E+00  0.00000000E+00
  0.00000000E+00  0.00000000E+00  0.00000000E+00
  0.00000000E+00  0.00000000E+00  0.00000000E+00
  0.00000000E+00  0.00000000E+00  0.00000000E+00
  0.00000000E+00  0.00000000E+00  0.00000000E+00
  0.00000000E+00  0.00000000E+00  0.00000000E+00
  0.00000000E+00  0.00000000E+00  0.00000000E+00
  0.00000000E+00  0.00000000E+00  0.00000000E+00
  0.00000000E+00  0.00000000E+00  0.00000000E+00
  0.00000000E+00  0.00000000E+00  0.00000000E+00
  0.00000000E+00  0.00000000E+00  0.00000000E+00
  0.00000000E+00  0.00000000E+00  0.00000000E+00
