Nb Mo Ta Ti  V                          
   1.00000000000000     
    -3.1992822247705432   -3.1508716576967086   -3.1639400065719365
     1.5202022699510807    1.6427657136210738   -7.8972374601355284
     7.7221430273955836   -7.7222317626156762   -1.4582660324065824
   Nb   Mo   Ta   Ti   V 
     5     6     6     6     6
Direct
  0.9577098613403227  0.9459327168126349  0.4244391101221405
  0.6276676527312974  0.2768230776577507  0.4019131908638508
  0.4941518664596801  0.0051419828619907 -0.0063419532726150
 -0.0040357655938139  0.0046776821960395 -0.0026833317226670
  0.0752508025844362  0.1865424096142669  0.7731914450883285
  0.9029228194146401  0.8044756872063071  0.2048175203407462
  0.8053143930746828  0.5985072309847165  0.3990337284679570
  0.7317624657944909  0.4749713024198521  0.1981760919308074
  0.6613203702810583  0.3439953904911651 -0.0073026329450601
  0.3629690470420616  0.7180653510358087  0.6063511668043915
  0.1304302354024792  0.2772201615361989  0.3987144268365099
  0.8336002341936806  0.6659762056647681 -0.0005631846110618
  0.9345580759797997  0.8723275810609220  0.7869783462960385
  0.5701609538712800  0.1396950127924680  0.1973625365933876
  0.4031423499877309  0.8026406651715982  0.1993612602082716
  0.4471790146865873  0.8498825502550829  0.7936411115810572
  0.2981684294520538  0.6079069214269910  0.4059875724068517
  0.8533195865001780  0.7063029360005089  0.6022911441539948
  0.4714439102900272  0.9376101835196720  0.4194813117937679
  0.1678684708616813  0.3372051044089617 -0.0049309325393322
  0.2683469807226659  0.5269640189182121  0.7936301448767711
  0.2117065136723163  0.3794131313548315  0.5917003085296029
  0.0669584157511915  0.1520282343923824  0.2113207373423610
  0.7624965813827210  0.5096413678908460  0.8027574746605756
  0.6865283566738317  0.3989550514943543  0.6072344040091585
  0.5742075498591063  0.2044683136150922  0.7951156545410910
  0.6118178247564309  0.0702573995860407  0.6138103561310830
  0.3330639526135335  0.6519502048572181 -0.0006962260620245
  0.2266357202138663  0.4837554547733143  0.1952092175740157
 
  0.00000000E+00  0.00000000E+00  0.00000000E+00
  0.00000000E+00  0.00000000E+00  0.00000000E+00
  0.00000000E+00  0.00000000E+00  0.00000000E+00
  0.00000000E+00  0.00000000E+00  0.00000000E+00
  0.00000000E+00  0.00000000E+00  0.00000000E+00
  0.00000000E+00  0.00000000E+00  0.00000000E+00
  0.00000000E+00  0.00000000E+00  0.00000000E+00
  0.00000000E+00  0.00000000E+00  0.00000000E+00
  0.00000000E+00  0.00000000E+00  0.00000000E+00
  0.00000000E+00  0.00000000E+00  0.00000000E+00
  0.00000000E+00  0.00000000E+00  0.00000000E+00
  0.00000000E+00  0.00000000E+00  0.00000000E+00
  0.00000000E+00  0.00000000E+00  0.00000000E+00
  0.00000000E+00  0.00000000E+00  0.00000000E+00
  0.00000000E+00  0.00000000E+00  0.00000000E+00
  0.00000000E+00  0.00000000E+00  0.00000000E+00
  0.00000000E+00  0.00000000E+00  0.00000000E+00
  0.00000000E+00  0.00000000E+00  0.00000000E+00
  0.00000000E+00  0.00000000E+00  0.00000000E+00
  0.00000000E+00  0.00000000E+00  0.00000000E+00
  0.00000000E+00  0.00000000E+00  0.00000000E+00
  0.00000000E+00  0.00000000E+00  0.00000000E+00
  0.00000000E+00  0.00000000E+00  0.00000000E+00
  0.00000000E+00  0.00000000E+00  0.00000000E+00
  0.00000000E+00  0.00000000E+00  0.00000000E+00
  0.00000000E+00  0.00000000E+00  0.00000000E+00
  0.00000000E+00  0.00000000E+00  0.00000000E+00
  0.00000000E+00  0.00000000E+00  0.00000000E+00
  0.00000000E+00  0.00000000E+00  0.00000000E+00
