Nb Mo Ta Ti  W                          
   1.00000000000000     
    -3.2110348712598049   -3.1663453323421380   -3.1752227480859410
     1.5395350357923943    1.6692916903865842   -7.9579976202912626
     7.8229245028369148   -7.8346911830253649   -1.4639303946491158
   Nb   Mo   Ta   Ti   W 
     5     6     6     6     6
Direct
  0.9643039479865109  0.9497870016236706  0.4323983668177511
  0.6298089093336191  0.2716324072661067  0.4019312489589715
  0.5014725826202934  0.0032080159880038 -0.0036412732812116
  0.0011807216471036  0.0021672971480131 -0.0002833887778788
  0.0930741549627931  0.1912902289179882  0.7831531901010348
  0.9035166235953579  0.8035795322574152  0.2064832724959527
  0.8012927540317786  0.5994009682913185  0.3986887481946279
  0.7357916605788942  0.4713749958513425  0.2007192559428465
  0.6704250726670818  0.3388181514230063 -0.0032709881151447
  0.3567526536607314  0.7299807449668210  0.6012275417285111
  0.1326050739282943  0.2721484422660668  0.4012388353911687
  0.8371628516678755  0.6667570883421625 -0.0003424936057748
  0.9319164581591907  0.8751360450491101  0.7806705981444063
  0.5753142880696217  0.1351449637495790  0.1990112870401121
  0.4057450530016030  0.8008255689980529  0.1995143463078116
  0.4422570023525520  0.8517257135962171  0.7948423598680950
  0.2986020525690847  0.6056630222265214  0.4041858600787334
  0.8515656891434986  0.7156689434441922  0.5967107497580059
  0.4724892303554527  0.9323359630391059  0.4073464627777756
  0.1748590826426462  0.3332853988655356  0.0016232513976685
  0.2678046902893646  0.5288115544699363  0.7963110469183260
  0.1952429407024305  0.3911124950414453  0.5908160422251859
  0.0707953589863875  0.1469517269309750  0.2144524907088199
  0.7697042377830732  0.5214242481801039  0.7986960604425490
  0.6921982578088214  0.3958800848386349  0.6017117238305303
  0.5891802716773459  0.2000417154972807  0.7944572836727731
  0.5336999980782678  0.0651199407105605  0.6025055718327581
  0.3350529346831111  0.6602782702206287 -0.0004762957185741
  0.2328521170172106  0.4737828008001949  0.1993188448641663
 
  0.00000000E+00  0.00000000E+00  0.00000000E+00
  0.00000000E+00  0.00000000E+00  0.00000000E+00
  0.00000000E+00  0.00000000E+00  0.00000000E+00
  0.00000000E+00  0.00000000E+00  0.00000000E+00
  0.00000000E+00  0.00000000E+00  0.00000000E+00
  0.00000000E+00  0.00000000E+00  0.00000000E+00
  0.00000000E+00  0.00000000E+00  0.00000000E+00
  0.00000000E+00  0.00000000E+00  0.00000000E+00
  0.00000000E+00  0.00000000E+00  0.00000000E+00
  0.00000000E+00  0.00000000E+00  0.00000000E+00
  0.00000000E+00  0.00000000E+00  0.00000000E+00
  0.00000000E+00  0.00000000E+00  0.00000000E+00
  0.00000000E+00  0.00000000E+00  0.00000000E+00
  0.00000000E+00  0.00000000E+00  0.00000000E+00
  0.00000000E+00  0.00000000E+00  0.00000000E+00
  0.00000000E+00  0.00000000E+00  0.00000000E+00
  0.00000000E+00  0.00000000E+00  0.00000000E+00
  0.00000000E+00  0.00000000E+00  0.00000000E+00
  0.00000000E+00  0.00000000E+00  0.00000000E+00
  0.00000000E+00  0.00000000E+00  0.00000000E+00
  0.00000000E+00  0.00000000E+00  0.00000000E+00
  0.00000000E+00  0.00000000E+00  0.00000000E+00
  0.00000000E+00  0.00000000E+00  0.00000000E+00
  0.00000000E+00  0.00000000E+00  0.00000000E+00
  0.00000000E+00  0.00000000E+00  0.00000000E+00
  0.00000000E+00  0.00000000E+00  0.00000000E+00
  0.00000000E+00  0.00000000E+00  0.00000000E+00
  0.00000000E+00  0.00000000E+00  0.00000000E+00
  0.00000000E+00  0.00000000E+00  0.00000000E+00
