Nb Mo Ta Ti  W                          
   1.00000000000000     
    -3.1845489649255576   -3.1917215990001973   -3.2135189008745790
     1.5668522219096501    1.4906421676113661   -7.9030553097814558
     7.9669622353162524   -7.9397443290518996   -1.6518200803569449
   Nb   Mo   Ta   Ti   W 
     6     6     5     6     6
Direct
  0.9967409489132165  0.8952866259433517  0.4016563229401742
  0.6217241260176820  0.2794764454828609  0.3989169234426472
  0.4980423947711677  0.0024330105083297 -0.0003586822268341
  0.0011223815910815  0.0006845018125559  0.0059783920377802
  0.0965169386122416  0.2088363382340720  0.7959914997160502
  0.0386591355303629  0.0705704419933762  0.5936932221081411
  0.8997826877734378  0.7921967731343323  0.2052464007550541
  0.7987383267089336  0.5936487379935773  0.3984663486975619
  0.7345175985421296  0.4625225266666979  0.1996838744889158
  0.6610980160626381  0.3392653835255203 -0.0006651339534031
  0.3678542184665921  0.7277719513253830  0.5948147054054669
  0.1276283123331363  0.2733342084986951  0.3983005512857577
  0.8305946847919947  0.6650968817212188  0.0053892826172600
  0.9298895255906037  0.8731542840096433  0.7995660917923979
  0.5676280696521364  0.1312100490615875  0.2004357912353138
  0.4029074345371778  0.7809315132717282  0.2102949465165958
  0.4363623929850806  0.8613394142957905  0.7974265632668520
  0.8491472114254988  0.7376130410132458  0.6019354703030426
  0.4777190148319562  0.9336605819365971  0.4086752457696469
  0.1720065946214972  0.3323588928035083  0.0002180317511427
  0.2693136649537706  0.5358262560999432  0.7929212790422755
  0.2001032793321882  0.4141370643929728  0.5796505268250240
  0.0630854891467965  0.1385518199835554  0.2127343860257040
  0.7672379484723254  0.5307384739981289  0.7989756110724973
  0.6974037052332350  0.4117616533742557  0.5995741433483799
  0.5963537236154777  0.2044571764001074  0.7947557368758105
  0.5368891161014631  0.0752455456905474  0.5991366861107640
  0.3321966477219597  0.6586660167012633  0.0021961798292385
  0.2287364116642152  0.4692243901271390  0.2043896029207446
 
  0.00000000E+00  0.00000000E+00  0.00000000E+00
  0.00000000E+00  0.00000000E+00  0.00000000E+00
  0.00000000E+00  0.00000000E+00  0.00000000E+00
  0.00000000E+00  0.00000000E+00  0.00000000E+00
  0.00000000E+00  0.00000000E+00  0.00000000E+00
  0.00000000E+00  0.00000000E+00  0.00000000E+00
  0.00000000E+00  0.00000000E+00  0.00000000E+00
  0.00000000E+00  0.00000000E+00  0.00000000E+00
  0.00000000E+00  0.00000000E+00  0.00000000E+00
  0.00000000E+00  0.00000000E+00  0.00000000E+00
  0.00000000E+00  0.00000000E+00  0.00000000E+00
  0.00000000E+00  0.00000000E+00  0.00000000E+00
  0.00000000E+00  0.00000000E+00  0.00000000E+00
  0.00000000E+00  0.00000000E+00  0.00000000E+00
  0.00000000E+00  0.00000000E+00  0.00000000E+00
  0.00000000E+00  0.00000000E+00  0.00000000E+00
  0.00000000E+00  0.00000000E+00  0.00000000E+00
  0.00000000E+00  0.00000000E+00  0.00000000E+00
  0.00000000E+00  0.00000000E+00  0.00000000E+00
  0.00000000E+00  0.00000000E+00  0.00000000E+00
  0.00000000E+00  0.00000000E+00  0.00000000E+00
  0.00000000E+00  0.00000000E+00  0.00000000E+00
  0.00000000E+00  0.00000000E+00  0.00000000E+00
  0.00000000E+00  0.00000000E+00  0.00000000E+00
  0.00000000E+00  0.00000000E+00  0.00000000E+00
  0.00000000E+00  0.00000000E+00  0.00000000E+00
  0.00000000E+00  0.00000000E+00  0.00000000E+00
  0.00000000E+00  0.00000000E+00  0.00000000E+00
  0.00000000E+00  0.00000000E+00  0.00000000E+00
