Nb Mo Ta Ti  V                          
   1.00000000000000     
    -3.1558472366598127   -3.1698620693473698   -3.1802418530855054
     1.5057255299011616    1.5510023916583378   -7.8459677739055307
     7.7871696921966933   -7.8718284756548869   -1.5405887410704717
   Nb   Mo   Ta   Ti   V 
     6     6     6     5     6
Direct
  0.9437783731447732  0.9185389472526935  0.4263046019596764
  0.6259466827744041  0.2678689661687760  0.4065898691553768
  0.5014064527130195 -0.0021084359764456 -0.0077790543419177
 -0.0030105191221409 -0.0053848922845418 -0.0016694916905747
  0.0949821704006546  0.2078125358601726  0.7937488689192768
  0.0469395075820063  0.0796794239435023  0.5979761138508417
  0.9053515166397178  0.7936566339705885  0.2020599946385172
  0.8075224097325129  0.5960504611359720  0.3988297182304507
  0.7328410027241330  0.4628517129093579  0.1986571371698904
  0.6670564596866073  0.3372658742330742 -0.0028473855614068
  0.4269786177386984  0.7229568249821055  0.6001982774167788
  0.1241911306549444  0.2792020493675180  0.4022852117355837
  0.8420950874885527  0.6611262578207857 -0.0048397284308642
  0.9293579421865452  0.8436517179258843  0.7617701461420575
  0.5652937367788609  0.1335853904551455  0.1969935729113414
  0.4054672392063134  0.7905018673124400  0.1968699151897172
  0.4289821683208908  0.8563943429783144  0.7974221887258914
  0.3081881560023917  0.6039523999285407  0.4054689000644343
  0.4459768639476226  0.9423263110926972  0.4031626452750482
  0.1782811620522305  0.3304466628252525  0.0015389580550487
  0.2960570323628275  0.5256780504461053  0.8012073857172549
  0.1400711868931510  0.4523534199605005  0.6038351523183649
  0.0603518768955223  0.1424634428721588  0.2096199905309911
  0.7775477303503161  0.5213150892126843  0.8018803760664699
  0.6764534803072902  0.4050552225341567  0.6084134972702029
  0.5979641842847121  0.1994155122746505  0.7928562918451498
  0.5391121645511634  0.0817556736246750  0.6097730472680879
  0.3437156005066745  0.6470335942049164 -0.0002756788747127
  0.2244339131956168  0.4712216129683120  0.1999494784430211
 
  0.00000000E+00  0.00000000E+00  0.00000000E+00
  0.00000000E+00  0.00000000E+00  0.00000000E+00
  0.00000000E+00  0.00000000E+00  0.00000000E+00
  0.00000000E+00  0.00000000E+00  0.00000000E+00
  0.00000000E+00  0.00000000E+00  0.00000000E+00
  0.00000000E+00  0.00000000E+00  0.00000000E+00
  0.00000000E+00  0.00000000E+00  0.00000000E+00
  0.00000000E+00  0.00000000E+00  0.00000000E+00
  0.00000000E+00  0.00000000E+00  0.00000000E+00
  0.00000000E+00  0.00000000E+00  0.00000000E+00
  0.00000000E+00  0.00000000E+00  0.00000000E+00
  0.00000000E+00  0.00000000E+00  0.00000000E+00
  0.00000000E+00  0.00000000E+00  0.00000000E+00
  0.00000000E+00  0.00000000E+00  0.00000000E+00
  0.00000000E+00  0.00000000E+00  0.00000000E+00
  0.00000000E+00  0.00000000E+00  0.00000000E+00
  0.00000000E+00  0.00000000E+00  0.00000000E+00
  0.00000000E+00  0.00000000E+00  0.00000000E+00
  0.00000000E+00  0.00000000E+00  0.00000000E+00
  0.00000000E+00  0.00000000E+00  0.00000000E+00
  0.00000000E+00  0.00000000E+00  0.00000000E+00
  0.00000000E+00  0.00000000E+00  0.00000000E+00
  0.00000000E+00  0.00000000E+00  0.00000000E+00
  0.00000000E+00  0.00000000E+00  0.00000000E+00
  0.00000000E+00  0.00000000E+00  0.00000000E+00
  0.00000000E+00  0.00000000E+00  0.00000000E+00
  0.00000000E+00  0.00000000E+00  0.00000000E+00
  0.00000000E+00  0.00000000E+00  0.00000000E+00
  0.00000000E+00  0.00000000E+00  0.00000000E+00
