Nb Mo Ta Ti  V                          
   1.00000000000000     
    -3.1654198645490355   -3.1771886425542903   -3.1794720055537997
     1.5829663195452652    1.4656691787574281   -7.8272624379100098
     7.8962787056441481   -7.8406099148578310   -1.6724737774525047
   Nb   Mo   Ta   Ti   V 
     6     6     6     5     6
Direct
  0.9659016133222416  0.9399579515751478  0.3977923678308515
  0.6345932851626648  0.2685060372836170  0.4045480534486580
  0.5025328376281736  0.0089028821327855 -0.0112187179066763
  0.0032858953972370 -0.0029130079071280 -0.0036949802806977
  0.0793733484561577  0.1941079127832251  0.7946803808383420
  0.0413297141474590  0.0623555860758956  0.5992395449979564
  0.9081539344471456  0.8037088666849104  0.2030335282251075
  0.8079453103239590  0.5955235049142822  0.4041599901816572
  0.7304845921422788  0.4742413717612198  0.2039414966545209
  0.6694140237785606  0.3408577528535677 -0.0050532612380730
  0.3661904230667323  0.7177852070649166  0.6069407369598878
  0.1376102642671407  0.2795946463010670  0.4017354133716588
  0.8247901633778358  0.6589691056990516  0.0098642723568520
  0.9705493653113800  0.8114769735353561  0.8002727488068512
  0.5657688413687318  0.1469040676310973  0.1908437828061510
  0.4066190547476923  0.8033559489717138  0.1976859994006328
  0.4508655901833484  0.8515800642407007  0.7977929401956078
  0.3025118154440023  0.6028833646969798  0.4103118826874060
  0.8403960963481169  0.7275639992038720  0.5959716787853819
  0.4671277262362246  0.9394981677797298  0.4059000845439651
  0.1901242582644966  0.3686200619850650 -0.0401497405269944
  0.2112795321056359  0.4061855506168910  0.6305798702303494
  0.0652884705561392  0.1609262765005860  0.1961045106104265
  0.6871846249725435  0.5108351701402430  0.8076015891779205
  0.7087992213718707  0.3973475545239590  0.6021792661172107
  0.5908540347657967  0.1958508219214034  0.7880595313807094
  0.5451974582387422  0.0671824793862794  0.6090014452405280
  0.3297292266492602  0.6547987216935679  0.0036394623416201
  0.2294326079184464  0.4800596299499923  0.1982361227621922
 
  0.00000000E+00  0.00000000E+00  0.00000000E+00
  0.00000000E+00  0.00000000E+00  0.00000000E+00
  0.00000000E+00  0.00000000E+00  0.00000000E+00
  0.00000000E+00  0.00000000E+00  0.00000000E+00
  0.00000000E+00  0.00000000E+00  0.00000000E+00
  0.00000000E+00  0.00000000E+00  0.00000000E+00
  0.00000000E+00  0.00000000E+00  0.00000000E+00
  0.00000000E+00  0.00000000E+00  0.00000000E+00
  0.00000000E+00  0.00000000E+00  0.00000000E+00
  0.00000000E+00  0.00000000E+00  0.00000000E+00
  0.00000000E+00  0.00000000E+00  0.00000000E+00
  0.00000000E+00  0.00000000E+00  0.00000000E+00
  0.00000000E+00  0.00000000E+00  0.00000000E+00
  0.00000000E+00  0.00000000E+00  0.00000000E+00
  0.00000000E+00  0.00000000E+00  0.00000000E+00
  0.00000000E+00  0.00000000E+00  0.00000000E+00
  0.00000000E+00  0.00000000E+00  0.00000000E+00
  0.00000000E+00  0.00000000E+00  0.00000000E+00
  0.00000000E+00  0.00000000E+00  0.00000000E+00
  0.00000000E+00  0.00000000E+00  0.00000000E+00
  0.00000000E+00  0.00000000E+00  0.00000000E+00
  0.00000000E+00  0.00000000E+00  0.00000000E+00
  0.00000000E+00  0.00000000E+00  0.00000000E+00
  0.00000000E+00  0.00000000E+00  0.00000000E+00
  0.00000000E+00  0.00000000E+00  0.00000000E+00
  0.00000000E+00  0.00000000E+00  0.00000000E+00
  0.00000000E+00  0.00000000E+00  0.00000000E+00
  0.00000000E+00  0.00000000E+00  0.00000000E+00
  0.00000000E+00  0.00000000E+00  0.00000000E+00
