Nb Mo Ta Ti  W                          
   1.00000000000000     
    -3.2108399631730702   -3.1447449560299341   -3.1566228514482084
     1.5719233883752006    1.6667648748946990   -7.9518776995133686
     7.9323147336653701   -7.8631802496144667   -1.4816221747819940
   Nb   Mo   Ta   Ti   W 
     6     5     6     6     6
Direct
  0.9450209070390676  0.9162219032993861  0.3640550646402786
  0.6300313443834479  0.2645822639930218  0.4006583862521982
  0.4974329849548498  0.0055915653026744 -0.0031537112583009
  0.0009811077601617 -0.0060636974402554  0.0161733805504771
  0.0985262917385312  0.2049898095788205  0.8002209051274960
  0.0351598708998285  0.0624352219104530  0.5940668789690212
  0.8024752487466019  0.5946986984418606  0.3992964028983473
  0.7345461927363337  0.4700425331475002  0.2034211781376661
  0.6687423584938449  0.3418035326546399 -0.0002132044027243
  0.3624790589843917  0.7269604504506890  0.5992852918929409
  0.1307493778076477  0.2716654414257202  0.4010141006333356
  0.8419862348057042  0.6684089158883202  0.0087385199886857
  0.9311029754593410  0.8694760247342889  0.8010162863297631
  0.5739108078370642  0.1341812414873072  0.1965745298333707
  0.4241130074384660  0.7965479696880801  0.1996263565496547
  0.4384931430648871  0.8574142806538252  0.7967267580819438
  0.3009624613059667  0.6003582228850021  0.4022872928553675
  0.8550683769313655  0.7312697286050247  0.5944655586814199
  0.4487701199635082  0.9318335064237803  0.4084606248683604
  0.1747830211870225  0.3390463781954813  0.0043037758597553
  0.2677321561280952  0.5333415070117096  0.7991794442675414
  0.1947627467586359  0.3910780171231559  0.5954600577238544
  0.0728004310900599  0.1553965562759360  0.2100270203785817
  0.7714690455980862  0.5268020647653898  0.8013381189149108
  0.6909007414915588  0.4054147166123186  0.6032751354906093
  0.6009024138216096  0.2004646740627490  0.7979248687770952
  0.5366473324778241  0.0656679483005791  0.6015195205567193
  0.3435387532570864  0.6603729234986343  0.0032118088253553
  0.2259114878390062  0.4799976010238959  0.2010396485762737
 
  0.00000000E+00  0.00000000E+00  0.00000000E+00
  0.00000000E+00  0.00000000E+00  0.00000000E+00
  0.00000000E+00  0.00000000E+00  0.00000000E+00
  0.00000000E+00  0.00000000E+00  0.00000000E+00
  0.00000000E+00  0.00000000E+00  0.00000000E+00
  0.00000000E+00  0.00000000E+00  0.00000000E+00
  0.00000000E+00  0.00000000E+00  0.00000000E+00
  0.00000000E+00  0.00000000E+00  0.00000000E+00
  0.00000000E+00  0.00000000E+00  0.00000000E+00
  0.00000000E+00  0.00000000E+00  0.00000000E+00
  0.00000000E+00  0.00000000E+00  0.00000000E+00
  0.00000000E+00  0.00000000E+00  0.00000000E+00
  0.00000000E+00  0.00000000E+00  0.00000000E+00
  0.00000000E+00  0.00000000E+00  0.00000000E+00
  0.00000000E+00  0.00000000E+00  0.00000000E+00
  0.00000000E+00  0.00000000E+00  0.00000000E+00
  0.00000000E+00  0.00000000E+00  0.00000000E+00
  0.00000000E+00  0.00000000E+00  0.00000000E+00
  0.00000000E+00  0.00000000E+00  0.00000000E+00
  0.00000000E+00  0.00000000E+00  0.00000000E+00
  0.00000000E+00  0.00000000E+00  0.00000000E+00
  0.00000000E+00  0.00000000E+00  0.00000000E+00
  0.00000000E+00  0.00000000E+00  0.00000000E+00
  0.00000000E+00  0.00000000E+00  0.00000000E+00
  0.00000000E+00  0.00000000E+00  0.00000000E+00
  0.00000000E+00  0.00000000E+00  0.00000000E+00
  0.00000000E+00  0.00000000E+00  0.00000000E+00
  0.00000000E+00  0.00000000E+00  0.00000000E+00
  0.00000000E+00  0.00000000E+00  0.00000000E+00
