Nb Mo Ta Ti  W                          
   1.00000000000000     
    -3.1979328841970589   -3.1994613487382355   -3.2060313956144646
     1.5507312893701373    1.5426236326969747   -7.9097511126763260
     7.9408388258393954   -7.9544473498468280   -1.5928743129903360
   Nb   Mo   Ta   Ti   W 
     6     6     6     5     6
Direct
  0.9624383895181400  0.9366204639172072  0.3960273358508953
  0.6307466893227739  0.2673906869201869  0.4024821911766547
  0.5027392149559343  0.0038937981084733 -0.0053392574872734
  0.0018620938263641  0.0003241138481773 -0.0002245665319633
  0.0935635132437445  0.1977665512126114  0.7985484092047546
  0.0391068401794935  0.0652235446726702  0.5985343620435694
  0.9041713471325586  0.8015616168334120  0.2026096690353213
  0.8041285114434588  0.5948669212110822  0.4007769007861007
  0.7330512931409536  0.4689377220371486  0.2002746761656831
  0.6675639267993003  0.3390473654588024 -0.0025858402849793
  0.3643358294569832  0.7231472780799251  0.6044274415475935
  0.1324703139772702  0.2754619584101729  0.4002066494094731
  0.8290141170588825  0.6642166986785234  0.0061032045710365
  0.9541358688113623  0.8316595532076152  0.7975124284452459
  0.5669990781420396  0.1368758634868573  0.1947994372376254
  0.4055684598776675  0.7984439597671010  0.1986166640265302
  0.4442213088621206  0.8561791636391478  0.7971102073548373
  0.2992304956561196  0.6040750804646329  0.4066479419108736
  0.8463876396575122  0.7351865979965092  0.5922211088727372
  0.4645020106247342  0.9347718371465141  0.4053023310782380
  0.1758751074402974  0.3475910308134347 -0.0133546959640360
  0.1976233133927636  0.4013852550917790  0.6113891440656375
  0.0630142834136452  0.1509329119954537  0.2037753636983895
  0.7570369827796729  0.5244703275181630  0.8013284261981325
  0.6963966334560465  0.4059363144022792  0.6038264935150279
  0.5954563873075424  0.2036164055387457  0.7961301158019882
  0.5371054464818048  0.0689163835574394  0.6041262472380715
  0.3335013198018850  0.6567363940401657 -0.0010512549208158
  0.2310869142389221  0.4714308719457567  0.1997788659546534
 
  0.00000000E+00  0.00000000E+00  0.00000000E+00
  0.00000000E+00  0.00000000E+00  0.00000000E+00
  0.00000000E+00  0.00000000E+00  0.00000000E+00
  0.00000000E+00  0.00000000E+00  0.00000000E+00
  0.00000000E+00  0.00000000E+00  0.00000000E+00
  0.00000000E+00  0.00000000E+00  0.00000000E+00
  0.00000000E+00  0.00000000E+00  0.00000000E+00
  0.00000000E+00  0.00000000E+00  0.00000000E+00
  0.00000000E+00  0.00000000E+00  0.00000000E+00
  0.00000000E+00  0.00000000E+00  0.00000000E+00
  0.00000000E+00  0.00000000E+00  0.00000000E+00
  0.00000000E+00  0.00000000E+00  0.00000000E+00
  0.00000000E+00  0.00000000E+00  0.00000000E+00
  0.00000000E+00  0.00000000E+00  0.00000000E+00
  0.00000000E+00  0.00000000E+00  0.00000000E+00
  0.00000000E+00  0.00000000E+00  0.00000000E+00
  0.00000000E+00  0.00000000E+00  0.00000000E+00
  0.00000000E+00  0.00000000E+00  0.00000000E+00
  0.00000000E+00  0.00000000E+00  0.00000000E+00
  0.00000000E+00  0.00000000E+00  0.00000000E+00
  0.00000000E+00  0.00000000E+00  0.00000000E+00
  0.00000000E+00  0.00000000E+00  0.00000000E+00
  0.00000000E+00  0.00000000E+00  0.00000000E+00
  0.00000000E+00  0.00000000E+00  0.00000000E+00
  0.00000000E+00  0.00000000E+00  0.00000000E+00
  0.00000000E+00  0.00000000E+00  0.00000000E+00
  0.00000000E+00  0.00000000E+00  0.00000000E+00
  0.00000000E+00  0.00000000E+00  0.00000000E+00
  0.00000000E+00  0.00000000E+00  0.00000000E+00
