Nb Mo Ta Ti  W                          
   1.00000000000000     
    -3.1505782125498762   -3.1929375818988741   -3.1509964925234777
     1.6470858989646378    1.5936361027479371   -7.9458349361517442
     7.9310078717553001   -7.9635620192504346   -1.6490696241260487
   Nb   Mo   Ta   Ti   W 
     6     6     6     5     6
Direct
  0.9771409579041533  0.9491920743551917  0.3775769420850603
  0.6261266963484795  0.2693982352208782  0.4009722481364009
  0.5073338609294424  0.0005355982600349 -0.0047904962663250
 -0.0037287156679052  0.0076544646349767  0.0132671381077834
  0.0958948093153843  0.2040126021213016  0.8023239243510500
  0.0427102926603599  0.0694063829851635  0.5929923105615342
  0.8938998671848064  0.7945330510248558  0.2020499710241920
  0.8060772332294760  0.5956712697951546  0.3981691493061713
  0.7371241683395341  0.4551149800753187  0.2001098580538304
  0.6523798560610254  0.3415449833386580  0.0002661505872904
  0.3683404921573379  0.7286081830762238  0.5997736422994800
  0.1323425863692048  0.2711565016740152  0.3937322727640177
  0.8349311446912424  0.6612690753976268  0.0045113125516217
  0.9304021832394250  0.8710271926074126  0.7989870170426896
  0.5464483952418602  0.1336972771344893  0.1996972548841733
  0.3959487298184093  0.8037167888833678  0.1973536901748577
  0.4367534055360838  0.8577665032785546  0.7967772998417314
  0.3001322200624110  0.6046012026417960  0.4016273792121612
  0.8622648018097668  0.7346718499127343  0.5952243545825333
  0.4853378038767340  0.9217048765628566  0.4105690846381468
  0.1605776007622269  0.3260428825234168  0.0144392403685721
  0.2692858216273827  0.5327899604233142  0.7995054400666421
  0.2005143763381264  0.3956508381363616  0.5987297853291209
  0.7708148467481388  0.5271260983900223  0.8018202355305738
  0.6976381787337115  0.4080410318606356  0.6022670125294178
  0.5985567554069989  0.2019825874581206  0.7973217905027633
  0.5427029212431896  0.0684412186648195  0.6009665089305678
  0.3327688627174847  0.6595638844306986  0.0020720314323602
  0.2326131773155050  0.4717450751319867  0.2016874513715783
 
  0.00000000E+00  0.00000000E+00  0.00000000E+00
  0.00000000E+00  0.00000000E+00  0.00000000E+00
  0.00000000E+00  0.00000000E+00  0.00000000E+00
  0.00000000E+00  0.00000000E+00  0.00000000E+00
  0.00000000E+00  0.00000000E+00  0.00000000E+00
  0.00000000E+00  0.00000000E+00  0.00000000E+00
  0.00000000E+00  0.00000000E+00  0.00000000E+00
  0.00000000E+00  0.00000000E+00  0.00000000E+00
  0.00000000E+00  0.00000000E+00  0.00000000E+00
  0.00000000E+00  0.00000000E+00  0.00000000E+00
  0.00000000E+00  0.00000000E+00  0.00000000E+00
  0.00000000E+00  0.00000000E+00  0.00000000E+00
  0.00000000E+00  0.00000000E+00  0.00000000E+00
  0.00000000E+00  0.00000000E+00  0.00000000E+00
  0.00000000E+00  0.00000000E+00  0.00000000E+00
  0.00000000E+00  0.00000000E+00  0.00000000E+00
  0.00000000E+00  0.00000000E+00  0.00000000E+00
  0.00000000E+00  0.00000000E+00  0.00000000E+00
  0.00000000E+00  0.00000000E+00  0.00000000E+00
  0.00000000E+00  0.00000000E+00  0.00000000E+00
  0.00000000E+00  0.00000000E+00  0.00000000E+00
  0.00000000E+00  0.00000000E+00  0.00000000E+00
  0.00000000E+00  0.00000000E+00  0.00000000E+00
  0.00000000E+00  0.00000000E+00  0.00000000E+00
  0.00000000E+00  0.00000000E+00  0.00000000E+00
  0.00000000E+00  0.00000000E+00  0.00000000E+00
  0.00000000E+00  0.00000000E+00  0.00000000E+00
  0.00000000E+00  0.00000000E+00  0.00000000E+00
  0.00000000E+00  0.00000000E+00  0.00000000E+00
