Nb Mo Ta Ti  W                          
   1.00000000000000     
    -3.1700331494727050   -3.1170270504992450   -3.1595637097310729
     1.5315677391770972    1.6505762213040827   -7.9373610589686967
     7.9778575112524921   -7.9600178227213370   -1.4647491386088829
   Nb   Mo   Ta   Ti   W 
     6     6     5     6     6
Direct
  0.9594651094020162  0.9359358428520450  0.3970771654935234
  0.6308649852649735  0.2674811227678226  0.4025107187780856
  0.4999798169360495 -0.0076756253508819 -0.0173459014926323
 -0.0088399969337181 -0.0000376373747804  0.0037255513370543
  0.1143964712238824  0.1881254666121143  0.7973828279052663
  0.0350905591251470  0.0681966885313476  0.5963446914754983
  0.8994458480696618  0.7998295988693033  0.2014239475042007
  0.8025468429483817  0.5954068509571703  0.4004691284454493
  0.7319274255170145  0.4670442194428308  0.2000520932956985
  0.6648837493814180  0.3386541045789293 -0.0035706428598162
  0.3713150346938432  0.7340755989106524  0.6099670147870513
  0.1330679189608972  0.2723833340888324  0.4016686251739870
  0.8421000336249447  0.6598258916861887  0.0021076134117189
  0.9212357133990239  0.8669286527389487  0.7960823255389929
  0.5634342835132814  0.1320714129868760  0.1945813296034725
  0.4060610228899696  0.7946246194994576  0.1961750896048321
  0.2997001269325733  0.6048323283785884  0.4042133672207935
  0.8680979903355027  0.7306758545854953  0.5957167814387025
  0.4647805353905272  0.9300690247065908  0.4079774912885527
  0.1739660809284523  0.3319711672637888 -0.0001507549003917
  0.2625669427223289  0.5315254427733794  0.7991736887510886
  0.2004384195094201  0.3941200852240693  0.5979270888091491
  0.0607936463838640  0.1465131084588857  0.2074073837518363
  0.7617844902960161  0.5397397611365230  0.8010533735190246
  0.6942417422858113  0.4110468964302684  0.6062798533608132
  0.6060996342738816  0.2066414641431788  0.7959456128646127
  0.5377735312971941  0.0637842154477210  0.6092242228933009
  0.3388234341824021  0.6599460894881388 -0.0037478829378885
  0.2306252774452371  0.4695977501665009  0.2003281959380260
 
  0.00000000E+00  0.00000000E+00  0.00000000E+00
  0.00000000E+00  0.00000000E+00  0.00000000E+00
  0.00000000E+00  0.00000000E+00  0.00000000E+00
  0.00000000E+00  0.00000000E+00  0.00000000E+00
  0.00000000E+00  0.00000000E+00  0.00000000E+00
  0.00000000E+00  0.00000000E+00  0.00000000E+00
  0.00000000E+00  0.00000000E+00  0.00000000E+00
  0.00000000E+00  0.00000000E+00  0.00000000E+00
  0.00000000E+00  0.00000000E+00  0.00000000E+00
  0.00000000E+00  0.00000000E+00  0.00000000E+00
  0.00000000E+00  0.00000000E+00  0.00000000E+00
  0.00000000E+00  0.00000000E+00  0.00000000E+00
  0.00000000E+00  0.00000000E+00  0.00000000E+00
  0.00000000E+00  0.00000000E+00  0.00000000E+00
  0.00000000E+00  0.00000000E+00  0.00000000E+00
  0.00000000E+00  0.00000000E+00  0.00000000E+00
  0.00000000E+00  0.00000000E+00  0.00000000E+00
  0.00000000E+00  0.00000000E+00  0.00000000E+00
  0.00000000E+00  0.00000000E+00  0.00000000E+00
  0.00000000E+00  0.00000000E+00  0.00000000E+00
  0.00000000E+00  0.00000000E+00  0.00000000E+00
  0.00000000E+00  0.00000000E+00  0.00000000E+00
  0.00000000E+00  0.00000000E+00  0.00000000E+00
  0.00000000E+00  0.00000000E+00  0.00000000E+00
  0.00000000E+00  0.00000000E+00  0.00000000E+00
  0.00000000E+00  0.00000000E+00  0.00000000E+00
  0.00000000E+00  0.00000000E+00  0.00000000E+00
  0.00000000E+00  0.00000000E+00  0.00000000E+00
  0.00000000E+00  0.00000000E+00  0.00000000E+00
