Nb Mo Ta Ti  W                          
   1.00000000000000     
    -3.2066928948992413   -3.1567554586255064   -3.1972673949477945
     1.5000027240427034    1.6080724440492657   -7.9197435883777407
     7.9278673793996601   -7.9258438264461333   -1.4756917236084406
   Nb   Mo   Ta   Ti   W 
     5     6     6     6     6
Direct
  0.9564750731132781  0.9346886189808440  0.3950031341295770
  0.6295552296479048  0.2656287254065655  0.3992824621136105
  0.0058097942567599 -0.0004675461283303  0.0028733606663116
  0.0973698435168279  0.2068419996244057  0.7979054774392453
  0.0380805257655694  0.0672627325259560  0.5984138229730306
  0.9066409003047577  0.7959162918395327  0.2020286464520376
  0.8024581608964684  0.5943511548201306  0.3979456153992786
  0.7319468457181411  0.4665174566440115  0.1986375963615798
  0.6740126063290329  0.3382909472196245 -0.0018496094214071
  0.3687136101061546  0.7286827977579071  0.6016941361593015
  0.1310541393133182  0.2733795247594238  0.3996595297008007
  0.8273812627573230  0.6731107023092706  0.0039777799824200
  0.9327110185053342  0.8721689206109490  0.8009211439842016
  0.5590483743448524  0.1245964552702094  0.1836195863450041
  0.4075585496518333  0.7993930491706006  0.1905167963188081
  0.4373095591400282  0.8646972892767024  0.8061012122988674
  0.3006343467119443  0.6037471212504769  0.4032929116190966
  0.8554159330312829  0.7369019875656007  0.5989385208068763
  0.4634399485825698  0.9312556656912447  0.4029135841773046
  0.1944359373308453  0.3126534505838840  0.0013161238608923
  0.2717212899738073  0.5333233111410894  0.8017196432349282
  0.2007884137309549  0.3938938735581386  0.5977149971751626
  0.0492179220879726  0.1481975158697776  0.2084112692517880
  0.7696688645988707  0.5302522245371774  0.8027638749787115
  0.6903735455346304  0.4105980079338428  0.6040537860128591
  0.5981321159745036  0.2014324327092251  0.7999677335526062
  0.5361901259219969  0.0695668585061478  0.6037698733971383
  0.3326495088587067  0.6563060202741964  0.0009292284729399
  0.2312065542943237  0.4668124102913807  0.1974777625570292
 
  0.00000000E+00  0.00000000E+00  0.00000000E+00
  0.00000000E+00  0.00000000E+00  0.00000000E+00
  0.00000000E+00  0.00000000E+00  0.00000000E+00
  0.00000000E+00  0.00000000E+00  0.00000000E+00
  0.00000000E+00  0.00000000E+00  0.00000000E+00
  0.00000000E+00  0.00000000E+00  0.00000000E+00
  0.00000000E+00  0.00000000E+00  0.00000000E+00
  0.00000000E+00  0.00000000E+00  0.00000000E+00
  0.00000000E+00  0.00000000E+00  0.00000000E+00
  0.00000000E+00  0.00000000E+00  0.00000000E+00
  0.00000000E+00  0.00000000E+00  0.00000000E+00
  0.00000000E+00  0.00000000E+00  0.00000000E+00
  0.00000000E+00  0.00000000E+00  0.00000000E+00
  0.00000000E+00  0.00000000E+00  0.00000000E+00
  0.00000000E+00  0.00000000E+00  0.00000000E+00
  0.00000000E+00  0.00000000E+00  0.00000000E+00
  0.00000000E+00  0.00000000E+00  0.00000000E+00
  0.00000000E+00  0.00000000E+00  0.00000000E+00
  0.00000000E+00  0.00000000E+00  0.00000000E+00
  0.00000000E+00  0.00000000E+00  0.00000000E+00
  0.00000000E+00  0.00000000E+00  0.00000000E+00
  0.00000000E+00  0.00000000E+00  0.00000000E+00
  0.00000000E+00  0.00000000E+00  0.00000000E+00
  0.00000000E+00  0.00000000E+00  0.00000000E+00
  0.00000000E+00  0.00000000E+00  0.00000000E+00
  0.00000000E+00  0.00000000E+00  0.00000000E+00
  0.00000000E+00  0.00000000E+00  0.00000000E+00
  0.00000000E+00  0.00000000E+00  0.00000000E+00
  0.00000000E+00  0.00000000E+00  0.00000000E+00
