Nb Mo Ta Ti  V                          
   1.00000000000000     
    -3.1659580756929824   -3.1736831779832868   -3.1873062065742186
     1.6036581750352112    1.4815209552199777   -7.8839349959198106
     7.8193637103596485   -7.7465089114901495   -1.6831178417641266
   Nb   Mo   Ta   Ti   V 
     5     6     6     6     6
Direct
  0.9562486490407892  0.9319836892448421  0.3964681178018312
  0.6298299621341346  0.2625226405882110  0.4043127028231097
  0.5024170252390554  0.0101441701598407 -0.0111207951336084
 -0.0024528296917027  0.0210741316401811 -0.0139490057336558
  0.0411061904739778  0.0753919919932162  0.6030902937543865
  0.9023020115078528  0.7972148934243866  0.2014234798330174
  0.8044264582865566  0.5888046305455502  0.4032640023315446
  0.7278024534252118  0.4688483304133532  0.2004988351241087
  0.6512618939776181  0.3503156321877343 -0.0043921481323794
  0.3740677452942174  0.7247509538859636  0.6031157283645723
  0.1285546941055772  0.2718484416081246  0.4040561455682817
  0.8360084023608654  0.6665861704325821  0.0010392318430555
  0.9218159203347004  0.8694035795315376  0.7955590796649537
  0.5597895241375747  0.1381738201019162  0.1929162750890539
  0.3996539720730261  0.7944668348296704  0.1941251753258303
  0.4316194238943210  0.8667740429918205  0.7941430055357326
  0.2957866027667803  0.5946536118281035  0.4101032495085901
  0.8644485687458462  0.7198848896071853  0.6026842926794019
  0.4586269668648779  0.9265502300058808  0.4085287417578706
  0.1651329748862366  0.3376503356215154 -0.0160876171372435
  0.2924881187181817  0.5418842837665798  0.7949029962446814
  0.1893601873952876  0.3642685289341469  0.6344869566408807
  0.0586135386770268  0.1494974137736697  0.1989904325881453
  0.7862109167661556  0.5081020657705343  0.8061210685623699
  0.6801861304220371  0.4088660720040996  0.6046257860253567
  0.6230855444875455  0.2122442173319798  0.7900661208096970
  0.5614362896708777  0.0673470060311743  0.6037457637013171
  0.3395008691875553  0.6576832333144667 -0.0025164175566672
  0.2206717948178283  0.4730641584317218  0.1997985021157693
 
  0.00000000E+00  0.00000000E+00  0.00000000E+00
  0.00000000E+00  0.00000000E+00  0.00000000E+00
  0.00000000E+00  0.00000000E+00  0.00000000E+00
  0.00000000E+00  0.00000000E+00  0.00000000E+00
  0.00000000E+00  0.00000000E+00  0.00000000E+00
  0.00000000E+00  0.00000000E+00  0.00000000E+00
  0.00000000E+00  0.00000000E+00  0.00000000E+00
  0.00000000E+00  0.00000000E+00  0.00000000E+00
  0.00000000E+00  0.00000000E+00  0.00000000E+00
  0.00000000E+00  0.00000000E+00  0.00000000E+00
  0.00000000E+00  0.00000000E+00  0.00000000E+00
  0.00000000E+00  0.00000000E+00  0.00000000E+00
  0.00000000E+00  0.00000000E+00  0.00000000E+00
  0.00000000E+00  0.00000000E+00  0.00000000E+00
  0.00000000E+00  0.00000000E+00  0.00000000E+00
  0.00000000E+00  0.00000000E+00  0.00000000E+00
  0.00000000E+00  0.00000000E+00  0.00000000E+00
  0.00000000E+00  0.00000000E+00  0.00000000E+00
  0.00000000E+00  0.00000000E+00  0.00000000E+00
  0.00000000E+00  0.00000000E+00  0.00000000E+00
  0.00000000E+00  0.00000000E+00  0.00000000E+00
  0.00000000E+00  0.00000000E+00  0.00000000E+00
  0.00000000E+00  0.00000000E+00  0.00000000E+00
  0.00000000E+00  0.00000000E+00  0.00000000E+00
  0.00000000E+00  0.00000000E+00  0.00000000E+00
  0.00000000E+00  0.00000000E+00  0.00000000E+00
  0.00000000E+00  0.00000000E+00  0.00000000E+00
  0.00000000E+00  0.00000000E+00  0.00000000E+00
  0.00000000E+00  0.00000000E+00  0.00000000E+00
