Nb Mo Ta Ti  W                          
   1.00000000000000     
    -3.2294842915907918   -3.1728668817321477   -3.2067480032808140
     1.4880757652613414    1.6184367667832671   -7.9223104037180212
     7.9232568029289094   -7.9299427233767554   -1.4550489803866953
   Nb   Mo   Ta   Ti   W 
     6     6     6     6     5
Direct
  0.9587777454204214  0.9289306401798086  0.3926036504313309
  0.6338816140097994  0.2629103356959585  0.4035047711689447
  0.5002149169281707  0.0058467434548014  0.0010861508670418
 -0.0012412831006921  0.0023362033882453  0.0051005085667978
  0.0995605977188249  0.2054955695482490  0.8006306328778651
  0.0385516902511697  0.0646156804946836  0.5966531260891986
  0.9038889102670561  0.7931997918919946  0.2014127213689719
  0.8031205434039866  0.5909383650312656  0.3945009109643116
  0.7342193548097152  0.4671470416489553  0.1993959255373323
  0.6729968788880899  0.3408233566624060 -0.0012530139789142
  0.3690787513045398  0.7245401977890348  0.5986208931791284
  0.1307309997296186  0.2734075867351852  0.3992835120077282
  0.8355870469941511  0.6682588779217996  0.0026259765547104
  0.9333136265887013  0.8702623751334081  0.8000904789785505
  0.5436677739830695  0.1571915422138823  0.1982944367810071
  0.4076584328957490  0.7933734368526469  0.1967917726878992
  0.4409250164463132  0.8576984113249867  0.7955278181538172
  0.3000762108536573  0.5963090779756071  0.3954606307166724
  0.8613377981213021  0.7313967617934514  0.5941830906538791
  0.4627488076831289  0.9279170663004590  0.4038185582244074
  0.1776180772420721  0.3457580120873375  0.0144490518664812
  0.2733325333106733  0.5316643302916692  0.8000877528609943
  0.1983229065045577  0.3917975663302239  0.5948262020526023
  0.0516681638922655  0.1417960348166601  0.2075072135205041
  0.7728986708390791  0.5269013699229441  0.8002531122872169
  0.6908504239796277  0.4076743326888108  0.6021020156533081
  0.5979361384868109  0.2015530937702505  0.7983957052099245
  0.5359544387022761  0.0665374255125986  0.6021211964731011
  0.3389898838458583  0.6570521025426600  0.0019251982451844
 
  0.00000000E+00  0.00000000E+00  0.00000000E+00
  0.00000000E+00  0.00000000E+00  0.00000000E+00
  0.00000000E+00  0.00000000E+00  0.00000000E+00
  0.00000000E+00  0.00000000E+00  0.00000000E+00
  0.00000000E+00  0.00000000E+00  0.00000000E+00
  0.00000000E+00  0.00000000E+00  0.00000000E+00
  0.00000000E+00  0.00000000E+00  0.00000000E+00
  0.00000000E+00  0.00000000E+00  0.00000000E+00
  0.00000000E+00  0.00000000E+00  0.00000000E+00
  0.00000000E+00  0.00000000E+00  0.00000000E+00
  0.00000000E+00  0.00000000E+00  0.00000000E+00
  0.00000000E+00  0.00000000E+00  0.00000000E+00
  0.00000000E+00  0.00000000E+00  0.00000000E+00
  0.00000000E+00  0.00000000E+00  0.00000000E+00
  0.00000000E+00  0.00000000E+00  0.00000000E+00
  0.00000000E+00  0.00000000E+00  0.00000000E+00
  0.00000000E+00  0.00000000E+00  0.00000000E+00
  0.00000000E+00  0.00000000E+00  0.00000000E+00
  0.00000000E+00  0.00000000E+00  0.00000000E+00
  0.00000000E+00  0.00000000E+00  0.00000000E+00
  0.00000000E+00  0.00000000E+00  0.00000000E+00
  0.00000000E+00  0.00000000E+00  0.00000000E+00
  0.00000000E+00  0.00000000E+00  0.00000000E+00
  0.00000000E+00  0.00000000E+00  0.00000000E+00
  0.00000000E+00  0.00000000E+00  0.00000000E+00
  0.00000000E+00  0.00000000E+00  0.00000000E+00
  0.00000000E+00  0.00000000E+00  0.00000000E+00
  0.00000000E+00  0.00000000E+00  0.00000000E+00
  0.00000000E+00  0.00000000E+00  0.00000000E+00
