Nb Mo Ta Ti  W                          
   1.00000000000000     
    -3.1991628331479927   -3.1588007877059732   -3.1866001177747556
     1.5379482473571227    1.6063267746518743   -7.9317927959037648
     7.9840187928428765   -7.9626935493843982   -1.5136896469439010
   Nb   Mo   Ta   Ti   W 
     6     5     6     6     6
Direct
  0.9675094377865339  0.9372911056764237  0.3945539410342784
  0.6298973735794101  0.2682241657877740  0.4009394568965657
  0.5051714575106777  0.0005523715403780 -0.0025854597851297
  0.0005693589956668  0.0034140331574459  0.0032937657447819
  0.0958193577961095  0.2035852613275981  0.7980382081797737
  0.0369559596166171  0.0694555543898782  0.5944957355037814
  0.9078637561059991  0.7967361477776712  0.2044419183787332
  0.7343885865598541  0.4676787784940956  0.2020674651601278
  0.6642087867383062  0.3398223296317817 -0.0007509938566150
  0.3612640134440330  0.7263638227621853  0.6008714201039240
  0.1282236331300014  0.2828558356454816  0.3995092648129652
  0.8360543467554712  0.6640154667149080  0.0027992685503036
  0.9269348878312045  0.8696324877619945  0.7974432513138279
  0.5676299616304896  0.1324016715099095  0.2002890049887118
  0.4084630067054733  0.7929840897331701  0.1975773102428331
  0.4377972796529350  0.8571071882334876  0.7951476585614092
  0.3004960390423910  0.6011958859580308  0.4034290254192291
  0.8533862374679569  0.7293273280003310  0.5929448088142598
  0.4748546498559260  0.9193467384986427  0.4069985381537921
  0.1725903332551492  0.3347670563389220  0.0038820037555912
  0.2711508065871234  0.5317763844660772  0.7969395486571399
  0.1999155396993466  0.3907259282032814  0.5971975197707472
  0.0620463213868670  0.1475041982228021  0.2094868750896360
  0.7702255097368051  0.5278254529744717  0.7987700212545114
  0.6858263405313834  0.4107464900428713  0.6025933552967077
  0.5962817886679355  0.2010785877986920  0.7966774360300409
  0.5376557486938941  0.0653297169961613  0.6002343189875148
  0.3368539598070008  0.6578413353643556  0.0005998807644538
  0.2299655214294348  0.4704145869911618  0.2021154521761055
 
  0.00000000E+00  0.00000000E+00  0.00000000E+00
  0.00000000E+00  0.00000000E+00  0.00000000E+00
  0.00000000E+00  0.00000000E+00  0.00000000E+00
  0.00000000E+00  0.00000000E+00  0.00000000E+00
  0.00000000E+00  0.00000000E+00  0.00000000E+00
  0.00000000E+00  0.00000000E+00  0.00000000E+00
  0.00000000E+00  0.00000000E+00  0.00000000E+00
  0.00000000E+00  0.00000000E+00  0.00000000E+00
  0.00000000E+00  0.00000000E+00  0.00000000E+00
  0.00000000E+00  0.00000000E+00  0.00000000E+00
  0.00000000E+00  0.00000000E+00  0.00000000E+00
  0.00000000E+00  0.00000000E+00  0.00000000E+00
  0.00000000E+00  0.00000000E+00  0.00000000E+00
  0.00000000E+00  0.00000000E+00  0.00000000E+00
  0.00000000E+00  0.00000000E+00  0.00000000E+00
  0.00000000E+00  0.00000000E+00  0.00000000E+00
  0.00000000E+00  0.00000000E+00  0.00000000E+00
  0.00000000E+00  0.00000000E+00  0.00000000E+00
  0.00000000E+00  0.00000000E+00  0.00000000E+00
  0.00000000E+00  0.00000000E+00  0.00000000E+00
  0.00000000E+00  0.00000000E+00  0.00000000E+00
  0.00000000E+00  0.00000000E+00  0.00000000E+00
  0.00000000E+00  0.00000000E+00  0.00000000E+00
  0.00000000E+00  0.00000000E+00  0.00000000E+00
  0.00000000E+00  0.00000000E+00  0.00000000E+00
  0.00000000E+00  0.00000000E+00  0.00000000E+00
  0.00000000E+00  0.00000000E+00  0.00000000E+00
  0.00000000E+00  0.00000000E+00  0.00000000E+00
  0.00000000E+00  0.00000000E+00  0.00000000E+00
