Nb Mo Ta Ti  W                          
   1.00000000000000     
    -3.2017453796213080   -3.1463463722158660   -3.1666010518655905
     1.5640003909746389    1.6430221741439517   -7.9494131298160120
     7.9815263039059987   -7.9264798974331310   -1.4995703274713696
   Nb   Mo   Ta   Ti   W 
     6     5     6     6     6
Direct
  0.9496388650008465  0.9297602131664344  0.3950831939189354
  0.6126635854013844  0.2658692671017076  0.4020159313613790
  0.5033056563496195  0.0032888696421655 -0.0029891447887446
  0.0019983147717888  0.0070251970055767  0.0051038026161654
  0.0966110329250544  0.2048458041077839  0.7963560933844686
  0.0382311491461032  0.0726284477914897  0.5879537388742840
  0.9057556279865968  0.7983762935453813  0.2022764810287122
  0.8098652959766184  0.5807032251039213  0.3980677692280638
  0.7343201002730614  0.4695330423522600  0.2020492559881302
  0.6677026588554488  0.3419576903588668 -0.0014276080503791
  0.3660975936982442  0.7276087051015498  0.5991556772841461
  0.8380652503893243  0.6668530309559622  0.0019567102944945
  0.9290421574796516  0.8705866162072722  0.7973042437082745
  0.5776625875617407  0.1358318093365697  0.1943474961604122
  0.4081871087338969  0.7975570105696069  0.2000627418245912
  0.4345548545021450  0.8579911391969053  0.7960325569549453
  0.3009729680490545  0.6018714502349619  0.4011361870569355
  0.8593322777026969  0.7276595420516153  0.5960590162581816
  0.4640652700742632  0.9282972232869597  0.4081016382539699
  0.1745349871581923  0.3344343635827366  0.0047369053110194
  0.2684616769556903  0.5324176797599790  0.7965146774600314
  0.1900064906607452  0.3873505390770665  0.5879553582750972
  0.0725252400948586  0.1598666858261244  0.2296528197718703
  0.7713939272187528  0.5274256471198112  0.7994734298180908
  0.6816418007425492  0.4070424687241680  0.6025599004205210
  0.5976381707147802  0.2011197745447221  0.7966518296318577
  0.5425694894884769  0.0639638624532083  0.6038931074436366
  0.3379147269662165  0.6604780270539519  0.0001530133669442
  0.2319078051221914  0.4709897047412271  0.1997631771439676
 
  0.00000000E+00  0.00000000E+00  0.00000000E+00
  0.00000000E+00  0.00000000E+00  0.00000000E+00
  0.00000000E+00  0.00000000E+00  0.00000000E+00
  0.00000000E+00  0.00000000E+00  0.00000000E+00
  0.00000000E+00  0.00000000E+00  0.00000000E+00
  0.00000000E+00  0.00000000E+00  0.00000000E+00
  0.00000000E+00  0.00000000E+00  0.00000000E+00
  0.00000000E+00  0.00000000E+00  0.00000000E+00
  0.00000000E+00  0.00000000E+00  0.00000000E+00
  0.00000000E+00  0.00000000E+00  0.00000000E+00
  0.00000000E+00  0.00000000E+00  0.00000000E+00
  0.00000000E+00  0.00000000E+00  0.00000000E+00
  0.00000000E+00  0.00000000E+00  0.00000000E+00
  0.00000000E+00  0.00000000E+00  0.00000000E+00
  0.00000000E+00  0.00000000E+00  0.00000000E+00
  0.00000000E+00  0.00000000E+00  0.00000000E+00
  0.00000000E+00  0.00000000E+00  0.00000000E+00
  0.00000000E+00  0.00000000E+00  0.00000000E+00
  0.00000000E+00  0.00000000E+00  0.00000000E+00
  0.00000000E+00  0.00000000E+00  0.00000000E+00
  0.00000000E+00  0.00000000E+00  0.00000000E+00
  0.00000000E+00  0.00000000E+00  0.00000000E+00
  0.00000000E+00  0.00000000E+00  0.00000000E+00
  0.00000000E+00  0.00000000E+00  0.00000000E+00
  0.00000000E+00  0.00000000E+00  0.00000000E+00
  0.00000000E+00  0.00000000E+00  0.00000000E+00
  0.00000000E+00  0.00000000E+00  0.00000000E+00
  0.00000000E+00  0.00000000E+00  0.00000000E+00
  0.00000000E+00  0.00000000E+00  0.00000000E+00
