Nb Mo Ta Ti  W                          
   1.00000000000000     
    -3.1866927834118712   -3.1639468690500774   -3.1827054533241856
     1.5424681608699506    1.6168490209393240   -7.9408915378807086
     7.8969407982254385   -7.9142376648852943   -1.5172272259392126
   Nb   Mo   Ta   Ti   W 
     6     6     5     6     6
Direct
  0.9605284227542930  0.9319812064369387  0.3991394399263379
  0.6344575373683268  0.2629712048269160  0.4031503618292083
  0.4969942027327746  0.0040570699759268 -0.0039263317069769
 -0.0015730083954333 -0.0065089294466305 -0.0106375619308538
  0.0952982371858326  0.2060493880627648  0.7976878020554212
  0.0345363959539394  0.0560134727846921  0.6082738213599074
  0.9054550752883809  0.7978214469031935  0.2004491329232601
  0.8064031712284987  0.5924338522059921  0.3990165248600842
  0.7351491819836107  0.4656035671017808  0.1995251816721732
  0.6658239805637175  0.3390209678939841 -0.0018814866005153
  0.3751276161231513  0.7278740630875596  0.6006204547065525
  0.1309976688954906  0.2715163593103743  0.4004003586498820
  0.8403825163919724  0.6690051514357001 -0.0039158597618163
  0.5739989586889129  0.1307409792382115  0.1952611919696328
  0.4067774431002518  0.7959118114028996  0.1967819230423261
  0.4532865020643612  0.8586737637245746  0.7973323441407653
  0.3010832371521928  0.6013267998318615  0.4030382884253568
  0.8618978331601759  0.7336772449350581  0.6057363115820888
  0.4634219754025472  0.9299070397289464  0.4078996650408395
  0.1730778737152683  0.3350986354649763 -0.0010201471654139
  0.2435856354454683  0.5601311302912276  0.7973928058532805
  0.1938995622006955  0.3932556594728602  0.5985611742184184
  0.0648522480521296  0.1467929082126435  0.2080018706043604
  0.7605635710198850  0.5235414219868152  0.8005273543592916
  0.6892846462191913  0.4068711109631866  0.6029490248973008
  0.5938321816282777  0.2029235635233063  0.7958274391013745
  0.5332636449995690  0.0689108042361598  0.6039993608498699
  0.3419749100576896  0.6591107857374900  0.0004193651862665
  0.2322854490188258  0.4686208506705757  0.1993901899115799
 
  0.00000000E+00  0.00000000E+00  0.00000000E+00
  0.00000000E+00  0.00000000E+00  0.00000000E+00
  0.00000000E+00  0.00000000E+00  0.00000000E+00
  0.00000000E+00  0.00000000E+00  0.00000000E+00
  0.00000000E+00  0.00000000E+00  0.00000000E+00
  0.00000000E+00  0.00000000E+00  0.00000000E+00
  0.00000000E+00  0.00000000E+00  0.00000000E+00
  0.00000000E+00  0.00000000E+00  0.00000000E+00
  0.00000000E+00  0.00000000E+00  0.00000000E+00
  0.00000000E+00  0.00000000E+00  0.00000000E+00
  0.00000000E+00  0.00000000E+00  0.00000000E+00
  0.00000000E+00  0.00000000E+00  0.00000000E+00
  0.00000000E+00  0.00000000E+00  0.00000000E+00
  0.00000000E+00  0.00000000E+00  0.00000000E+00
  0.00000000E+00  0.00000000E+00  0.00000000E+00
  0.00000000E+00  0.00000000E+00  0.00000000E+00
  0.00000000E+00  0.00000000E+00  0.00000000E+00
  0.00000000E+00  0.00000000E+00  0.00000000E+00
  0.00000000E+00  0.00000000E+00  0.00000000E+00
  0.00000000E+00  0.00000000E+00  0.00000000E+00
  0.00000000E+00  0.00000000E+00  0.00000000E+00
  0.00000000E+00  0.00000000E+00  0.00000000E+00
  0.00000000E+00  0.00000000E+00  0.00000000E+00
  0.00000000E+00  0.00000000E+00  0.00000000E+00
  0.00000000E+00  0.00000000E+00  0.00000000E+00
  0.00000000E+00  0.00000000E+00  0.00000000E+00
  0.00000000E+00  0.00000000E+00  0.00000000E+00
  0.00000000E+00  0.00000000E+00  0.00000000E+00
  0.00000000E+00  0.00000000E+00  0.00000000E+00
