Nb Mo Ta Ti  V                          
   1.00000000000000     
    -3.1341411190550161   -3.1456181076387395   -3.1578834840580909
     1.5352583402427769    1.5769481729569261   -7.8673593232571548
     7.7888539148562774   -7.8523604026156288   -1.5445723016051252
   Nb   Mo   Ta   Ti   V 
     6     6     5     6     6
Direct
  0.9564128320454860  0.9333121559666905  0.4025068016786436
  0.6329217835652232  0.2645149677298925  0.4060025725993391
  0.4992277707528079  0.0044929639571861 -0.0082502415226303
  0.0046169581109663 -0.0104227171999045 -0.0165137593818827
  0.1006516222671068  0.2086755202808142  0.7945892622727689
  0.0247786464996360  0.0508365086855556  0.6171128852995739
  0.9127985539947375  0.7956546892316301  0.1980432928099833
  0.8089001100348182  0.5908138357813968  0.4001733665806417
  0.7359021707413230  0.4669199320840454  0.1981293337889379
  0.6633873311538508  0.3420564250569559 -0.0058635867528425
  0.3779363912439661  0.7240169524493529  0.6034801588303645
  0.1290404241523414  0.2726709118466306  0.4024803269919452
  0.8471373707705346  0.6687127149837595 -0.0081059295412145
  0.5744842593937889  0.1340591523097167  0.1929889155550738
  0.4107168765902401  0.7942086908093379  0.1950192708925856
  0.4673656602363589  0.8541219538263729  0.7955496229072833
  0.3009654929179015  0.6005638923965715  0.4042609322537421
  0.8590056304967961  0.7293812255787614  0.6079531417839991
  0.4614520579503399  0.9306065947112288  0.4103199756950218
  0.1742032015414388  0.3397799050783457 -0.0036548040299015
  0.2355552230326304  0.5658343305941355  0.7970454845721012
  0.1916483723859502  0.3900505849690220  0.5999408933851187
  0.0671284461354972  0.1492587150312178  0.2063232714293476
  0.7518094555475847  0.5129810475810643  0.8054398669353996
  0.6789466090800818  0.4062449500500066  0.6088271268997684
  0.5872418867155672  0.2172375210386141  0.7929280787220496
  0.5265714132689564  0.0747546449602870  0.6058571851650247
  0.3560415823296012  0.6473439612314220  0.0002430147554427
  0.2298185370444786  0.4746512989798821  0.1971735394243187
 
  0.00000000E+00  0.00000000E+00  0.00000000E+00
  0.00000000E+00  0.00000000E+00  0.00000000E+00
  0.00000000E+00  0.00000000E+00  0.00000000E+00
  0.00000000E+00  0.00000000E+00  0.00000000E+00
  0.00000000E+00  0.00000000E+00  0.00000000E+00
  0.00000000E+00  0.00000000E+00  0.00000000E+00
  0.00000000E+00  0.00000000E+00  0.00000000E+00
  0.00000000E+00  0.00000000E+00  0.00000000E+00
  0.00000000E+00  0.00000000E+00  0.00000000E+00
  0.00000000E+00  0.00000000E+00  0.00000000E+00
  0.00000000E+00  0.00000000E+00  0.00000000E+00
  0.00000000E+00  0.00000000E+00  0.00000000E+00
  0.00000000E+00  0.00000000E+00  0.00000000E+00
  0.00000000E+00  0.00000000E+00  0.00000000E+00
  0.00000000E+00  0.00000000E+00  0.00000000E+00
  0.00000000E+00  0.00000000E+00  0.00000000E+00
  0.00000000E+00  0.00000000E+00  0.00000000E+00
  0.00000000E+00  0.00000000E+00  0.00000000E+00
  0.00000000E+00  0.00000000E+00  0.00000000E+00
  0.00000000E+00  0.00000000E+00  0.00000000E+00
  0.00000000E+00  0.00000000E+00  0.00000000E+00
  0.00000000E+00  0.00000000E+00  0.00000000E+00
  0.00000000E+00  0.00000000E+00  0.00000000E+00
  0.00000000E+00  0.00000000E+00  0.00000000E+00
  0.00000000E+00  0.00000000E+00  0.00000000E+00
  0.00000000E+00  0.00000000E+00  0.00000000E+00
  0.00000000E+00  0.00000000E+00  0.00000000E+00
  0.00000000E+00  0.00000000E+00  0.00000000E+00
  0.00000000E+00  0.00000000E+00  0.00000000E+00
