Nb Mo Ta Ti  V                          
   1.00000000000000     
    -3.1631604652421741   -3.1177173560117017   -3.1757793154260656
     1.4892940600756577    1.5617012178913030   -7.8504006817302212
     7.8904778057382581   -7.8708746225660366   -1.4935733314747162
   Nb   Mo   Ta   Ti   V 
     5     6     6     6     6
Direct
  0.9552629022904181  0.9358296378945519  0.3968918793255693
  0.6295780665736247  0.2669295218792549  0.4007380620148655
  0.0059118270726902 -0.0002303871794786  0.0016743031625314
  0.0980251754167360  0.2095994747777320  0.7946148399781895
  0.0401007611247080  0.0679151417421368  0.5996093566662953
  0.9107380264468017  0.7945344874529610  0.2003773742580389
  0.8039456281919003  0.5942072317703505  0.3985042194131720
  0.7288738290347065  0.4688177219177421  0.1968705557244469
  0.6688187981810567  0.3430565211789091 -0.0055136692484858
  0.3730076330287103  0.7244572620106866  0.6048218645157216
  0.1311885887833647  0.2746298317707714  0.4001845258380556
  0.8258856111025754  0.6755215669914244  0.0026033483283148
  0.9248372733871468  0.8754781722088290  0.7989199197997642
  0.5609560631991067  0.1280507859127082  0.1821243975169027
  0.4094316569051828  0.7985964087229718  0.1874761278380569
  0.4359304849364363  0.8595842313615693  0.8092457847915147
  0.3014952384088340  0.6031829411821236  0.4041531265245322
  0.8551793469132288  0.7308427657233670  0.6008220028529160
  0.4642103551110451  0.9301029504014655  0.4048482440907796
  0.1915456168751766  0.3194251611677039 -0.0000808802385680
  0.2747972292160896  0.5293059324057588  0.7990665829141045
  0.2034459641994165  0.3887206053456345  0.5979168855590099
  0.0497803947009477  0.1517550408663323  0.2070509871861715
  0.7641056171133088  0.5231181708250880  0.8069056328283910
  0.6828589711673216  0.4127089668075310  0.6082245146549914
  0.6010176615972930  0.2110133659215322  0.7936436892954668
  0.5472690755828867  0.0693460692803459  0.6126036462673154
  0.3336485495450262  0.6421289588984327  0.0003063498089856
  0.2281536538942740  0.4713714607615573  0.1953963283329509
 
  0.00000000E+00  0.00000000E+00  0.00000000E+00
  0.00000000E+00  0.00000000E+00  0.00000000E+00
  0.00000000E+00  0.00000000E+00  0.00000000E+00
  0.00000000E+00  0.00000000E+00  0.00000000E+00
  0.00000000E+00  0.00000000E+00  0.00000000E+00
  0.00000000E+00  0.00000000E+00  0.00000000E+00
  0.00000000E+00  0.00000000E+00  0.00000000E+00
  0.00000000E+00  0.00000000E+00  0.00000000E+00
  0.00000000E+00  0.00000000E+00  0.00000000E+00
  0.00000000E+00  0.00000000E+00  0.00000000E+00
  0.00000000E+00  0.00000000E+00  0.00000000E+00
  0.00000000E+00  0.00000000E+00  0.00000000E+00
  0.00000000E+00  0.00000000E+00  0.00000000E+00
  0.00000000E+00  0.00000000E+00  0.00000000E+00
  0.00000000E+00  0.00000000E+00  0.00000000E+00
  0.00000000E+00  0.00000000E+00  0.00000000E+00
  0.00000000E+00  0.00000000E+00  0.00000000E+00
  0.00000000E+00  0.00000000E+00  0.00000000E+00
  0.00000000E+00  0.00000000E+00  0.00000000E+00
  0.00000000E+00  0.00000000E+00  0.00000000E+00
  0.00000000E+00  0.00000000E+00  0.00000000E+00
  0.00000000E+00  0.00000000E+00  0.00000000E+00
  0.00000000E+00  0.00000000E+00  0.00000000E+00
  0.00000000E+00  0.00000000E+00  0.00000000E+00
  0.00000000E+00  0.00000000E+00  0.00000000E+00
  0.00000000E+00  0.00000000E+00  0.00000000E+00
  0.00000000E+00  0.00000000E+00  0.00000000E+00
  0.00000000E+00  0.00000000E+00  0.00000000E+00
  0.00000000E+00  0.00000000E+00  0.00000000E+00
