Nb Mo Ta Ti  W                          
   1.00000000000000     
    -3.1729475566081535   -3.1240353149857900   -3.1772468672102954
     1.5455123003566908    1.6233997613044910   -7.9635607748344688
     8.0227013955928026   -7.9823050661000483   -1.5069308880760865
   Nb   Mo   Ta   Ti   W 
     6     6     6     6     5
Direct
  0.9603431586730687  0.9362165449190154  0.3979337429737533
  0.6342858715280580  0.2704801041104785  0.4063713547894411
  0.5003758284128830  0.0008264793711140 -0.0034393187030559
 -0.0034602470701029  0.0035755643693851  0.0024784013252835
  0.0986528473768166  0.2043002269642150  0.7987608579187035
  0.0240588093370888  0.0790853102195914  0.5965033164202448
  0.9031001274590091  0.7999391947643456  0.2025624129351959
  0.8049869567287000  0.5921856715811831  0.3996721576623764
  0.7332149921715546  0.4680139191399083  0.2011241907694649
  0.6637669713856114  0.3403614591206485 -0.0026143258810984
  0.3841913872146535  0.7125527152511177  0.5997743427054850
  0.1354888735843013  0.2747212115964278  0.3998049147146375
  0.8349801486230288  0.6649964397385902  0.0019447493824627
  0.9268903990980574  0.8717574569618787  0.7975045178088481
  0.5675569143234439  0.1345505776118583  0.1977998952640694
  0.4085153003591586  0.7955107738105266  0.1989334721262918
  0.4363540984161495  0.8541352462674372  0.7932172149764404
  0.2984834103132229  0.6048162329589986  0.4022644384061149
  0.8704513549227368  0.7338634451043121  0.5980698589971698
  0.4654467392174400  0.9282870057894840  0.4090936862244237
  0.1713007918484203  0.3354718095900451  0.0014940857860602
  0.2589592559953097  0.5330956255732217  0.7991226944375021
  0.2002641524878741  0.3930302618324248  0.5952323557680681
  0.0591747617867801  0.1490021335980538  0.2093808023472489
  0.7658426882884608  0.5241509855960348  0.7985849081889101
  0.5977255681647363  0.2010431987796550  0.7950762317604220
  0.5305749846206935  0.0653386519879848  0.6033246641322880
  0.3351104819952855  0.6591265921794359 -0.0007574900997642
  0.2333633727375496  0.4695651612126153  0.2007818668630112
 
  0.00000000E+00  0.00000000E+00  0.00000000E+00
  0.00000000E+00  0.00000000E+00  0.00000000E+00
  0.00000000E+00  0.00000000E+00  0.00000000E+00
  0.00000000E+00  0.00000000E+00  0.00000000E+00
  0.00000000E+00  0.00000000E+00  0.00000000E+00
  0.00000000E+00  0.00000000E+00  0.00000000E+00
  0.00000000E+00  0.00000000E+00  0.00000000E+00
  0.00000000E+00  0.00000000E+00  0.00000000E+00
  0.00000000E+00  0.00000000E+00  0.00000000E+00
  0.00000000E+00  0.00000000E+00  0.00000000E+00
  0.00000000E+00  0.00000000E+00  0.00000000E+00
  0.00000000E+00  0.00000000E+00  0.00000000E+00
  0.00000000E+00  0.00000000E+00  0.00000000E+00
  0.00000000E+00  0.00000000E+00  0.00000000E+00
  0.00000000E+00  0.00000000E+00  0.00000000E+00
  0.00000000E+00  0.00000000E+00  0.00000000E+00
  0.00000000E+00  0.00000000E+00  0.00000000E+00
  0.00000000E+00  0.00000000E+00  0.00000000E+00
  0.00000000E+00  0.00000000E+00  0.00000000E+00
  0.00000000E+00  0.00000000E+00  0.00000000E+00
  0.00000000E+00  0.00000000E+00  0.00000000E+00
  0.00000000E+00  0.00000000E+00  0.00000000E+00
  0.00000000E+00  0.00000000E+00  0.00000000E+00
  0.00000000E+00  0.00000000E+00  0.00000000E+00
  0.00000000E+00  0.00000000E+00  0.00000000E+00
  0.00000000E+00  0.00000000E+00  0.00000000E+00
  0.00000000E+00  0.00000000E+00  0.00000000E+00
  0.00000000E+00  0.00000000E+00  0.00000000E+00
  0.00000000E+00  0.00000000E+00  0.00000000E+00
