Nb Mo Ta Ti  W                          
   1.00000000000000     
    -3.1494695661362173   -3.1399842096554669   -3.1822591742747819
     1.5828775788762550    1.5558475384237282   -7.9498236815405603
     8.0497963912857635   -8.0084055029145063   -1.6088878609408228
   Nb   Mo   Ta   Ti   W 
     6     6     6     6     5
Direct
  0.9565513064524588  0.9341118042311028  0.3960771030613452
  0.6307190510189735  0.2642865833869033  0.4030012056198389
  0.5110924639158084  0.0158125154801815 -0.0176938195003521
  0.0095913535985719  0.0046320391284145  0.0032142409400460
  0.0923389561535753  0.2018505843202552  0.7989816509030128
  0.0425899163885268  0.0658064012658132  0.5944201403166683
  0.9022253216047900  0.8017625894429229  0.2002774343420015
  0.8034391871066542  0.5932990574967910  0.3998843395020409
  0.7328826987642173  0.4696785633417186  0.2008530935241747
  0.6665613417621115  0.3434300923856434 -0.0010693300541703
  0.3664092403192558  0.7212526032752756  0.6020699075197012
  0.1315629774281911  0.2708322707653889  0.4011252743682152
  0.8340392454839198  0.6710045438078753 -0.0002646485641219
  0.9129216881707650  0.8814897346215790  0.7963428306650847
  0.5675851083829949  0.1344587427374734  0.1948529892805229
  0.4096459414374028  0.7964020526080450  0.1970642650866096
  0.4288396235273626  0.8508537305016212  0.7951308235576996
  0.3002963009136562  0.6010910070528590  0.4036150187688091
  0.8547633029256743  0.7319879836033474  0.5974767316564805
  0.4660118708087297  0.9280009202333839  0.4051383120114070
  0.1651997499287337  0.3408117870316881  0.0071699260253217
  0.2883180944235003  0.5096321030033423  0.8004503807781548
  0.1903048528465664  0.3936030334627736  0.5952485151544311
  0.0627343089125857  0.1471122826032771  0.2085681828074336
  0.7770548967826372  0.5235421245210312  0.8016796828799568
  0.6897281041815455  0.4032247945198298  0.6073467733473812
  0.5385153449942330  0.0680110410492555  0.6091349027477925
  0.3364283907675052  0.6599442115851559 -0.0008383075396844
  0.2316493609990449  0.4720748025370344  0.2007423807942021
 
  0.00000000E+00  0.00000000E+00  0.00000000E+00
  0.00000000E+00  0.00000000E+00  0.00000000E+00
  0.00000000E+00  0.00000000E+00  0.00000000E+00
  0.00000000E+00  0.00000000E+00  0.00000000E+00
  0.00000000E+00  0.00000000E+00  0.00000000E+00
  0.00000000E+00  0.00000000E+00  0.00000000E+00
  0.00000000E+00  0.00000000E+00  0.00000000E+00
  0.00000000E+00  0.00000000E+00  0.00000000E+00
  0.00000000E+00  0.00000000E+00  0.00000000E+00
  0.00000000E+00  0.00000000E+00  0.00000000E+00
  0.00000000E+00  0.00000000E+00  0.00000000E+00
  0.00000000E+00  0.00000000E+00  0.00000000E+00
  0.00000000E+00  0.00000000E+00  0.00000000E+00
  0.00000000E+00  0.00000000E+00  0.00000000E+00
  0.00000000E+00  0.00000000E+00  0.00000000E+00
  0.00000000E+00  0.00000000E+00  0.00000000E+00
  0.00000000E+00  0.00000000E+00  0.00000000E+00
  0.00000000E+00  0.00000000E+00  0.00000000E+00
  0.00000000E+00  0.00000000E+00  0.00000000E+00
  0.00000000E+00  0.00000000E+00  0.00000000E+00
  0.00000000E+00  0.00000000E+00  0.00000000E+00
  0.00000000E+00  0.00000000E+00  0.00000000E+00
  0.00000000E+00  0.00000000E+00  0.00000000E+00
  0.00000000E+00  0.00000000E+00  0.00000000E+00
  0.00000000E+00  0.00000000E+00  0.00000000E+00
  0.00000000E+00  0.00000000E+00  0.00000000E+00
  0.00000000E+00  0.00000000E+00  0.00000000E+00
  0.00000000E+00  0.00000000E+00  0.00000000E+00
  0.00000000E+00  0.00000000E+00  0.00000000E+00
