Nb Mo Ta Ti  V                          
   1.00000000000000     
    -3.1579025495537842   -3.1396992594756199   -3.1578753520611813
     1.5503869069306084    1.5433286679199509   -7.8396916393202609
     7.9505542294764311   -7.9164208951641921   -1.5679633359592007
   Nb   Mo   Ta   Ti   V 
     6     5     6     6     6
Direct
  0.9653968979977384  0.9392335614419004  0.3958404222296488
  0.6268243245061305  0.2710870833346096  0.4024517288773427
  0.5050234725745932  0.0020248744371593 -0.0064572985464107
 -0.0016847282319961  0.0074059134166654 -0.0002528013866809
  0.0953349494158628  0.2041032498918544  0.7951259850268602
  0.0366265653998874  0.0733295967083401  0.5925035664052543
  0.9103569810173698  0.7954942620044305  0.2034434047900088
  0.7318967022222239  0.4711185593700454  0.2037737867009155
  0.6612284514998797  0.3454290419030118 -0.0037157357110305
  0.3635882222859598  0.7213889414094040  0.6035387183512091
  0.1278236649217390  0.2904848574978398  0.3984517386621165
  0.8386314730567571  0.6630355014941545  0.0031683380599509
  0.9212133452175872  0.8705352866828834  0.7938285706505019
  0.5661077096020759  0.1362754638847695  0.1986585185007109
  0.4066745113584671  0.7928393513695488  0.1956219961340106
  0.4386926251068139  0.8537033260678474  0.7951773673018174
  0.2933542026764173  0.6012781179281861  0.4049697929458488
  0.8534996947986769  0.7215495763878284  0.5941601759598916
  0.4783404531829124  0.9149330757303004  0.4068500279609563
  0.1741120490747048  0.3385438164405314  0.0024237807413924
  0.2762699643473718  0.5289208480006612  0.7962714484187584
  0.2103903450274672  0.3827689476628980  0.6019717992610699
  0.0607784498102913  0.1532243840424473  0.2080366523547676
  0.7655409572842604  0.5201731007721870  0.8043321707125294
  0.6752992597148154  0.4102353064931892  0.6114104461938243
  0.5976147975204911  0.2051122406894472  0.7923556214285377
  0.5476484840278856  0.0623745762508019  0.6034991706754876
  0.3444429686791997  0.6479046299937948  0.0016531160387025
  0.2289732059044339  0.4754925086932538  0.2009074912620097
 
  0.00000000E+00  0.00000000E+00  0.00000000E+00
  0.00000000E+00  0.00000000E+00  0.00000000E+00
  0.00000000E+00  0.00000000E+00  0.00000000E+00
  0.00000000E+00  0.00000000E+00  0.00000000E+00
  0.00000000E+00  0.00000000E+00  0.00000000E+00
  0.00000000E+00  0.00000000E+00  0.00000000E+00
  0.00000000E+00  0.00000000E+00  0.00000000E+00
  0.00000000E+00  0.00000000E+00  0.00000000E+00
  0.00000000E+00  0.00000000E+00  0.00000000E+00
  0.00000000E+00  0.00000000E+00  0.00000000E+00
  0.00000000E+00  0.00000000E+00  0.00000000E+00
  0.00000000E+00  0.00000000E+00  0.00000000E+00
  0.00000000E+00  0.00000000E+00  0.00000000E+00
  0.00000000E+00  0.00000000E+00  0.00000000E+00
  0.00000000E+00  0.00000000E+00  0.00000000E+00
  0.00000000E+00  0.00000000E+00  0.00000000E+00
  0.00000000E+00  0.00000000E+00  0.00000000E+00
  0.00000000E+00  0.00000000E+00  0.00000000E+00
  0.00000000E+00  0.00000000E+00  0.00000000E+00
  0.00000000E+00  0.00000000E+00  0.00000000E+00
  0.00000000E+00  0.00000000E+00  0.00000000E+00
  0.00000000E+00  0.00000000E+00  0.00000000E+00
  0.00000000E+00  0.00000000E+00  0.00000000E+00
  0.00000000E+00  0.00000000E+00  0.00000000E+00
  0.00000000E+00  0.00000000E+00  0.00000000E+00
  0.00000000E+00  0.00000000E+00  0.00000000E+00
  0.00000000E+00  0.00000000E+00  0.00000000E+00
  0.00000000E+00  0.00000000E+00  0.00000000E+00
  0.00000000E+00  0.00000000E+00  0.00000000E+00
