Nb Mo Ta Ti  V                          
   1.00000000000000     
    -3.1808339067135951   -3.1841614298310730   -3.1778404184088944
     1.5557545233878121    1.5647336325792849   -7.8828559270901426
     7.7292806609728020   -7.7536991548889533   -1.5720848668572407
   Nb   Mo   Ta   Ti   V 
     6     6     5     6     6
Direct
  0.9488445591064983  0.9379693837374131  0.3993615048778698
  0.6317526263179544  0.2724236872620900  0.4027847798547135
  0.4904012077393269 -0.0130953299319440  0.0159574994604195
 -0.0125646852508238  0.0032397256602496  0.0022794457790254
  0.0999419899512205  0.2039230719382238  0.7981533486972614
  0.0409146454973073  0.0669283534436919  0.5974670875527395
  0.9127463958340274  0.7945232258517585  0.2019562650302018
  0.8117990805470016  0.5946050332364619  0.3961546504222524
  0.7231108152916140  0.4832843635389727  0.1981002448994687
  0.6588321903420962  0.3459469062776427 -0.0061166946350808
  0.3712611119957427  0.7230040186868664  0.5983894621619030
  0.1353997305510904  0.2738053824789619  0.3973228377780642
  0.8416383606876323  0.6607435897569681  0.0027562610803785
  0.9202988206329558  0.8711834274345491  0.8000471079020601
  0.5762986863369530  0.1511717729781530  0.1960508515573359
  0.4334750622515788  0.8537829918002233  0.8011258214190506
  0.3068750250298019  0.6109497493412445  0.3903551861609447
  0.8597780429745595  0.7253683511343167  0.5970358442034327
  0.4679255867286654  0.9238449351762102  0.3984804975269582
  0.1735862340519762  0.3354432516159234  0.0044598662886893
  0.2724574064276053  0.5302189176926314  0.7929198220156267
  0.2034141920671780  0.3871797705228924  0.5943352886992330
  0.0821743161316322  0.1349125472686202  0.2083410165466627
  0.7604040225193774  0.5181054636171457  0.8048590759768318
  0.6822257781125397  0.4092472228319518  0.6023614477083500
  0.5939878131491543  0.2066276857631808  0.7930218368700818
  0.5455267465372282  0.0672267231424128  0.6093687018571189
  0.3378549530177267  0.6523882411973125  0.0054684048158439
  0.2296392854203950  0.4750475365458721  0.1972025374925595
 
  0.00000000E+00  0.00000000E+00  0.00000000E+00
  0.00000000E+00  0.00000000E+00  0.00000000E+00
  0.00000000E+00  0.00000000E+00  0.00000000E+00
  0.00000000E+00  0.00000000E+00  0.00000000E+00
  0.00000000E+00  0.00000000E+00  0.00000000E+00
  0.00000000E+00  0.00000000E+00  0.00000000E+00
  0.00000000E+00  0.00000000E+00  0.00000000E+00
  0.00000000E+00  0.00000000E+00  0.00000000E+00
  0.00000000E+00  0.00000000E+00  0.00000000E+00
  0.00000000E+00  0.00000000E+00  0.00000000E+00
  0.00000000E+00  0.00000000E+00  0.00000000E+00
  0.00000000E+00  0.00000000E+00  0.00000000E+00
  0.00000000E+00  0.00000000E+00  0.00000000E+00
  0.00000000E+00  0.00000000E+00  0.00000000E+00
  0.00000000E+00  0.00000000E+00  0.00000000E+00
  0.00000000E+00  0.00000000E+00  0.00000000E+00
  0.00000000E+00  0.00000000E+00  0.00000000E+00
  0.00000000E+00  0.00000000E+00  0.00000000E+00
  0.00000000E+00  0.00000000E+00  0.00000000E+00
  0.00000000E+00  0.00000000E+00  0.00000000E+00
  0.00000000E+00  0.00000000E+00  0.00000000E+00
  0.00000000E+00  0.00000000E+00  0.00000000E+00
  0.00000000E+00  0.00000000E+00  0.00000000E+00
  0.00000000E+00  0.00000000E+00  0.00000000E+00
  0.00000000E+00  0.00000000E+00  0.00000000E+00
  0.00000000E+00  0.00000000E+00  0.00000000E+00
  0.00000000E+00  0.00000000E+00  0.00000000E+00
  0.00000000E+00  0.00000000E+00  0.00000000E+00
  0.00000000E+00  0.00000000E+00  0.00000000E+00
