Nb Mo Ta Ti  V                          
   1.00000000000000     
    -3.1186436186829916   -3.0812588659468640   -3.1158392984868404
     1.5454966960389078    1.6078106213602545   -7.8419857876590324
     7.9518792836750771   -7.9175846434944468   -1.4999673632207824
   Nb   Mo   Ta   Ti   V 
     6     6     5     6     6
Direct
  0.9642475297515468  0.9352173511786512  0.3991699765659555
  0.6341411276398732  0.2691595698332822  0.4029672395193293
  0.4892991724563334  0.0014495147854032 -0.0084322558521374
 -0.0107529204856774 -0.0071215218188582 -0.0048317744875621
  0.1377588498106056  0.1737906941658993  0.7946189194853521
  0.0286986265505833  0.0648740977362929  0.6015879496800803
  0.9069609462902939  0.7968370000951198  0.2007055692907002
  0.8122868729472026  0.5923375839610656  0.4014335145538310
  0.7337580351963212  0.4659175207145514  0.1991280143803416
  0.6699807403886809  0.3408098221164148 -0.0077225176974878
  0.3914423259256997  0.7331276435646984  0.6121009327701370
  0.1352814814567629  0.2740862459801902  0.4030101506081170
  0.8474322892456628  0.6567843749317466  0.0012926295768291
  0.7761905939269719  0.8758142574055234  0.7911028067183530
  0.5669445883931619  0.1357872537477973  0.1938871308244000
  0.4077666074146234  0.7909550064971695  0.1958315448066645
  0.3071422491934875  0.6022165294291002  0.4065186661029085
  0.8841014999527269  0.7222414108755968  0.5970514238032801
  0.4682119115286877  0.9280039031847953  0.4113496414511024
  0.1822543908279219  0.3362882164053893 -0.0065130435888053
  0.2610401792215283  0.5579290959022314  0.7978633573483046
  0.2077330829596330  0.3911438822410542  0.6067999374616702
  0.0644762120950724  0.1464495603661251  0.2025800805079589
  0.7887616088668687  0.5125330221476203  0.7975425274494239
  0.6940502154310593  0.4152026584612034  0.6120747706195616
  0.6078003834795884  0.2233756380385748  0.7941207433018814
  0.5309882087745742  0.0744558566651803  0.6058310591468842
  0.3468522004851536  0.6512543748788439  0.0007321950326464
  0.2318176602750629  0.4724127665093292  0.1981988106202837
 
  0.00000000E+00  0.00000000E+00  0.00000000E+00
  0.00000000E+00  0.00000000E+00  0.00000000E+00
  0.00000000E+00  0.00000000E+00  0.00000000E+00
  0.00000000E+00  0.00000000E+00  0.00000000E+00
  0.00000000E+00  0.00000000E+00  0.00000000E+00
  0.00000000E+00  0.00000000E+00  0.00000000E+00
  0.00000000E+00  0.00000000E+00  0.00000000E+00
  0.00000000E+00  0.00000000E+00  0.00000000E+00
  0.00000000E+00  0.00000000E+00  0.00000000E+00
  0.00000000E+00  0.00000000E+00  0.00000000E+00
  0.00000000E+00  0.00000000E+00  0.00000000E+00
  0.00000000E+00  0.00000000E+00  0.00000000E+00
  0.00000000E+00  0.00000000E+00  0.00000000E+00
  0.00000000E+00  0.00000000E+00  0.00000000E+00
  0.00000000E+00  0.00000000E+00  0.00000000E+00
  0.00000000E+00  0.00000000E+00  0.00000000E+00
  0.00000000E+00  0.00000000E+00  0.00000000E+00
  0.00000000E+00  0.00000000E+00  0.00000000E+00
  0.00000000E+00  0.00000000E+00  0.00000000E+00
  0.00000000E+00  0.00000000E+00  0.00000000E+00
  0.00000000E+00  0.00000000E+00  0.00000000E+00
  0.00000000E+00  0.00000000E+00  0.00000000E+00
  0.00000000E+00  0.00000000E+00  0.00000000E+00
  0.00000000E+00  0.00000000E+00  0.00000000E+00
  0.00000000E+00  0.00000000E+00  0.00000000E+00
  0.00000000E+00  0.00000000E+00  0.00000000E+00
  0.00000000E+00  0.00000000E+00  0.00000000E+00
  0.00000000E+00  0.00000000E+00  0.00000000E+00
  0.00000000E+00  0.00000000E+00  0.00000000E+00
