Nb Mo Ta Ti  W                          
   1.00000000000000     
    -3.1812172191621300   -3.1762537998782356   -3.2091107728311608
     1.5629640793857236    1.5447738790713919   -7.9521933972705368
     7.9581983387417443   -7.9442191166883758   -1.6059051666410762
   Nb   Mo   Ta   Ti   W 
     6     6     6     6     5
Direct
  0.9658263922469190  0.9312047631462673  0.3956443636906956
  0.6291865823031813  0.2613180627705838  0.4052310852911375
  0.5012012317326190  0.0049743139996900 -0.0042207563288282
 -0.0012082906535647  0.0051333252094931  0.0021889680154428
  0.0952123507536576  0.2056017652775863  0.8001096056536817
  0.0293261050568925  0.0666826119735051  0.5960405999356582
  0.9008064555515750  0.8002640680539734  0.2035459034837515
  0.8048481984371787  0.5933765146870353  0.4001545494657786
  0.7323734493161855  0.4691997013942786  0.1998530843069304
  0.6637284250415402  0.3432757112384023 -0.0018245189193850
  0.3632297344160081  0.7228827483649047  0.6001548427042107
  0.1255413186824686  0.2714782588218665  0.3994780157084163
  0.8320937282484073  0.6692992952391373  0.0006053589546814
  0.9316556879304480  0.8722375191843454  0.7981299334580592
  0.5624452585222656  0.1345546817323659  0.2009021589124240
  0.4071400387073169  0.7963216926411337  0.1999639389618499
  0.4368158359090896  0.8645664265477498  0.7882866458675485
  0.3024540194257820  0.5973074199249199  0.4046122793131865
  0.8619443352041424  0.7269570178944122  0.5961895081413768
  0.4638476185706368  0.9304466408766345  0.4149466839347107
  0.1745786674864819  0.3375694208767226  0.0019525847051843
  0.2733939052357062  0.5339859724850375  0.7952776344408998
  0.2181412053287053  0.3695998243021915  0.5969186196579900
  0.0575837580771216  0.1484219447541053  0.2088239543197838
  0.7711824078743114  0.5317011337657348  0.7982936877249728
  0.7001137449692215  0.4062704236632756  0.6031801034760506
  0.5984248710654430  0.2051983172737739  0.7960982840935739
  0.3342170406986062  0.6622521143954070 -0.0009049636075269
  0.2305625938616481  0.4712516395054566  0.2003678446377432
 
  0.00000000E+00  0.00000000E+00  0.00000000E+00
  0.00000000E+00  0.00000000E+00  0.00000000E+00
  0.00000000E+00  0.00000000E+00  0.00000000E+00
  0.00000000E+00  0.00000000E+00  0.00000000E+00
  0.00000000E+00  0.00000000E+00  0.00000000E+00
  0.00000000E+00  0.00000000E+00  0.00000000E+00
  0.00000000E+00  0.00000000E+00  0.00000000E+00
  0.00000000E+00  0.00000000E+00  0.00000000E+00
  0.00000000E+00  0.00000000E+00  0.00000000E+00
  0.00000000E+00  0.00000000E+00  0.00000000E+00
  0.00000000E+00  0.00000000E+00  0.00000000E+00
  0.00000000E+00  0.00000000E+00  0.00000000E+00
  0.00000000E+00  0.00000000E+00  0.00000000E+00
  0.00000000E+00  0.00000000E+00  0.00000000E+00
  0.00000000E+00  0.00000000E+00  0.00000000E+00
  0.00000000E+00  0.00000000E+00  0.00000000E+00
  0.00000000E+00  0.00000000E+00  0.00000000E+00
  0.00000000E+00  0.00000000E+00  0.00000000E+00
  0.00000000E+00  0.00000000E+00  0.00000000E+00
  0.00000000E+00  0.00000000E+00  0.00000000E+00
  0.00000000E+00  0.00000000E+00  0.00000000E+00
  0.00000000E+00  0.00000000E+00  0.00000000E+00
  0.00000000E+00  0.00000000E+00  0.00000000E+00
  0.00000000E+00  0.00000000E+00  0.00000000E+00
  0.00000000E+00  0.00000000E+00  0.00000000E+00
  0.00000000E+00  0.00000000E+00  0.00000000E+00
  0.00000000E+00  0.00000000E+00  0.00000000E+00
  0.00000000E+00  0.00000000E+00  0.00000000E+00
  0.00000000E+00  0.00000000E+00  0.00000000E+00
