Nb Mo Ta Ti  W                          
   1.00000000000000     
    -3.1974550724542850   -3.2188534540036131   -3.2196214318289860
     1.5624854003205397    1.5065980172370559   -7.9098563179182246
     7.9324330197062523   -7.9530963564437638   -1.6418772143901657
   Nb   Mo   Ta   Ti   W 
     6     6     6     5     6
Direct
  0.9652982664733248  0.9358821110060221  0.3913988664237764
  0.6328442452585951  0.2671439631242910  0.3995413207641527
  0.4879275149505672  0.0162703426391230 -0.0043852479778832
 -0.0083483412468778 -0.0023088181780324  0.0008276779227146
  0.0973012219755035  0.2069912080925573  0.8075319766163951
  0.0404615309744327  0.0672961247434833  0.5947762689468546
  0.9020864453472565  0.7996090901039584  0.2009183738029845
  0.8083495655577162  0.5944833863532336  0.3998939322000531
  0.7298188743092000  0.4691221408807260  0.2018569412164012
  0.6537499586174632  0.3401992767547367 -0.0021680638668468
  0.3658813367193643  0.7273067803934892  0.6007717940885576
  0.1321279619317390  0.2743918713545928  0.3976558615385431
  0.8494065612851648  0.6431008311977150  0.0050559422262452
  0.9314360650053486  0.8642089256328241  0.8020272575970119
  0.5721211288455104  0.1335877734672913  0.1989751630140378
  0.4067747092963320  0.7978205486350600  0.1960131096681772
  0.4374499346843260  0.8579903719325856  0.7985743476098631
  0.3018770276755223  0.6034892646276687  0.4049806444411985
  0.8576975374876126  0.7343788267324988  0.5989549369060081
  0.4676947586664464  0.9293199861862773  0.4063586087369068
  0.2681545434603112  0.5219254606982332  0.8093228513844472
  0.2000084653138197  0.3922672693000277  0.6015612241324543
  0.0642280642722503  0.1634217872479574  0.1858461223878353
  0.7613568799144551  0.5267830737098407  0.8016585055056340
  0.6958075921068884  0.4068928554687974  0.6040886694914744
  0.6042700063071061  0.1989876159571667  0.7944743460052796
  0.5373318414094596  0.0674275363248717  0.6018663547836484
  0.3381031319827936  0.6595653848064227  0.0026732290454226
  0.2321165014183640  0.4691116808065652  0.1989489853886522
 
  0.00000000E+00  0.00000000E+00  0.00000000E+00
  0.00000000E+00  0.00000000E+00  0.00000000E+00
  0.00000000E+00  0.00000000E+00  0.00000000E+00
  0.00000000E+00  0.00000000E+00  0.00000000E+00
  0.00000000E+00  0.00000000E+00  0.00000000E+00
  0.00000000E+00  0.00000000E+00  0.00000000E+00
  0.00000000E+00  0.00000000E+00  0.00000000E+00
  0.00000000E+00  0.00000000E+00  0.00000000E+00
  0.00000000E+00  0.00000000E+00  0.00000000E+00
  0.00000000E+00  0.00000000E+00  0.00000000E+00
  0.00000000E+00  0.00000000E+00  0.00000000E+00
  0.00000000E+00  0.00000000E+00  0.00000000E+00
  0.00000000E+00  0.00000000E+00  0.00000000E+00
  0.00000000E+00  0.00000000E+00  0.00000000E+00
  0.00000000E+00  0.00000000E+00  0.00000000E+00
  0.00000000E+00  0.00000000E+00  0.00000000E+00
  0.00000000E+00  0.00000000E+00  0.00000000E+00
  0.00000000E+00  0.00000000E+00  0.00000000E+00
  0.00000000E+00  0.00000000E+00  0.00000000E+00
  0.00000000E+00  0.00000000E+00  0.00000000E+00
  0.00000000E+00  0.00000000E+00  0.00000000E+00
  0.00000000E+00  0.00000000E+00  0.00000000E+00
  0.00000000E+00  0.00000000E+00  0.00000000E+00
  0.00000000E+00  0.00000000E+00  0.00000000E+00
  0.00000000E+00  0.00000000E+00  0.00000000E+00
  0.00000000E+00  0.00000000E+00  0.00000000E+00
  0.00000000E+00  0.00000000E+00  0.00000000E+00
  0.00000000E+00  0.00000000E+00  0.00000000E+00
  0.00000000E+00  0.00000000E+00  0.00000000E+00
