SYSTEM = SQS with 1 vacancy for VFE and VRV
ICHARG = 2
ENCUT = 600
ISMEAR = 1
SIGMA = 0.2
NCORE = 4
IBRION = 2
ISIF = 3
NSW = 20
IALGO = 38
ISYM = 0
GGA = PS
LREAL = Auto
