Nb Mo Ta Ti  W                          
   1.00000000000000     
    -3.1974147350903368   -3.1642510919726936   -3.2205589949077673
     1.4796449200853916    1.5824926990288348   -7.9326754585496646
     7.8982109809391385   -7.9341488910001807   -1.4910440873210211
   Nb   Mo   Ta   Ti   W 
     5     6     6     6     6
Direct
  0.9301214200497943  0.9569012533125232  0.3972168956472069
  0.4999818539219776  0.0037694598659968  0.0007145475757496
 -0.0042659335290820  0.0055685669307416  0.0050825685099467
  0.0973841087713915  0.2043693907757345  0.7977049003867256
  0.0389808228928960  0.0690447659120163  0.5958112197356070
  0.9011975895833693  0.8004475122265527  0.2058917379731495
  0.8105167265157012  0.5891856803803661  0.3978305743229643
  0.7324187367300277  0.4653714763464953  0.2037829673732025
  0.6655903335058133  0.3401691131174622 -0.0004149276788545
  0.3658085467190533  0.7249313890383882  0.5961866488625082
  0.1421266933467140  0.2715868732653837  0.3996874904771762
  0.8344215071279850  0.6665194372364674  0.0015266365217574
  0.9258212729581963  0.8712724073740868  0.7970537597914651
  0.5680712837654088  0.1417921559191230  0.2117392181266633
  0.4060861180990988  0.7932346457682488  0.2004270492058881
  0.4365210791602459  0.8567449825652671  0.7954872612989831
  0.3166246353676050  0.5837808711340322  0.4009976170271823
  0.8586080488756661  0.7328412010349844  0.5934550317702877
  0.4551474771208546  0.9186768999162250  0.4073672244929402
  0.1769386400139147  0.3329347158902768  0.0045932199143082
  0.2720515949901597  0.5323014143065578  0.7952957629548103
  0.1984399152310538  0.3903932376171833  0.5953740838284000
  0.0684949448031215  0.1467227722905965  0.2100342620322938
  0.7702280047950659  0.5271714900057977  0.7979243548080551
  0.6949280924039952  0.4031184866665588  0.5973665825976171
  0.5979234387727421  0.2019721911513059  0.7961616987913975
  0.5413621339655790  0.0700977570437474  0.5961900306835829
  0.3353230330273250  0.6607811832590966  0.0005921668487277
  0.2298145510143206  0.4716319996487700  0.1989194161202592
 
  0.00000000E+00  0.00000000E+00  0.00000000E+00
  0.00000000E+00  0.00000000E+00  0.00000000E+00
  0.00000000E+00  0.00000000E+00  0.00000000E+00
  0.00000000E+00  0.00000000E+00  0.00000000E+00
  0.00000000E+00  0.00000000E+00  0.00000000E+00
  0.00000000E+00  0.00000000E+00  0.00000000E+00
  0.00000000E+00  0.00000000E+00  0.00000000E+00
  0.00000000E+00  0.00000000E+00  0.00000000E+00
  0.00000000E+00  0.00000000E+00  0.00000000E+00
  0.00000000E+00  0.00000000E+00  0.00000000E+00
  0.00000000E+00  0.00000000E+00  0.00000000E+00
  0.00000000E+00  0.00000000E+00  0.00000000E+00
  0.00000000E+00  0.00000000E+00  0.00000000E+00
  0.00000000E+00  0.00000000E+00  0.00000000E+00
  0.00000000E+00  0.00000000E+00  0.00000000E+00
  0.00000000E+00  0.00000000E+00  0.00000000E+00
  0.00000000E+00  0.00000000E+00  0.00000000E+00
  0.00000000E+00  0.00000000E+00  0.00000000E+00
  0.00000000E+00  0.00000000E+00  0.00000000E+00
  0.00000000E+00  0.00000000E+00  0.00000000E+00
  0.00000000E+00  0.00000000E+00  0.00000000E+00
  0.00000000E+00  0.00000000E+00  0.00000000E+00
  0.00000000E+00  0.00000000E+00  0.00000000E+00
  0.00000000E+00  0.00000000E+00  0.00000000E+00
  0.00000000E+00  0.00000000E+00  0.00000000E+00
  0.00000000E+00  0.00000000E+00  0.00000000E+00
  0.00000000E+00  0.00000000E+00  0.00000000E+00
  0.00000000E+00  0.00000000E+00  0.00000000E+00
  0.00000000E+00  0.00000000E+00  0.00000000E+00
