Nb Mo Ta Ti  W                          
   1.00000000000000     
    -3.1925133076783720   -3.1354396935764046   -3.1559855099047085
     1.5663585738311321    1.6742071762606976   -7.9666407834636157
     7.9227863806610070   -7.8810763308549738   -1.4767918548323231
   Nb   Mo   Ta   Ti   W 
     5     6     6     6     6
Direct
  0.9580212199705560  0.9318809989375623  0.3911980050911900
  0.6321437367236993  0.2634739017911101  0.4003481094023154
  0.4926542596159840  0.0039942212330089 -0.0037626443537204
  0.0911055837785129  0.1993134608342040  0.8081048104868177
  0.0379385430568965  0.0661714823087792  0.5996217369033865
  0.9032494061228563  0.8002033518228312  0.1977182363481837
  0.8048152982001306  0.5913282627994237  0.3979774875334279
  0.7331648372145275  0.4655177979434520  0.1978915566836680
  0.6697936556731309  0.3340565228012281 -0.0016854807125013
  0.3661381518336665  0.7271445489279720  0.6006103363661106
  0.1304330241362645  0.2695549884502788  0.3988383344426654
  0.8326652933197607  0.6648486981005641  0.0041054596819280
  0.9367096638767417  0.8805811351118834  0.8143384227988751
  0.5631738103485284  0.1324458375352490  0.1950448935112604
  0.4066388517548063  0.7940895309601577  0.1983248856472403
  0.4498491815025643  0.8558936301398620  0.7959745549999230
  0.2998173139987115  0.6008232643335780  0.4010763541940394
  0.8620828228021765  0.7323418950936493  0.5986663538830050
  0.4631676753377392  0.9289584306899197  0.4054668493418119
  0.1811180152895225  0.3438588063283848  0.0034397817015271
  0.2680008920814663  0.5372991744679477  0.7984304879854279
  0.1973016895004207  0.3927796447183315  0.5955047678675872
  0.0622692457796000  0.1430346104296662  0.1970197791272532
  0.7717884108445277  0.5265355049132332  0.8005214715248731
  0.6953018464395176  0.4060457313883942  0.6036342435003433
  0.5895447131595483  0.2056039929373957  0.7988332250930089
  0.5391053411009570  0.0669280220948365  0.6030032977984503
  0.3297513134687456  0.6667309589898125  0.0001989003251033
  0.2322562030684336  0.4685615939172697  0.1995557828267989
 
  0.00000000E+00  0.00000000E+00  0.00000000E+00
  0.00000000E+00  0.00000000E+00  0.00000000E+00
  0.00000000E+00  0.00000000E+00  0.00000000E+00
  0.00000000E+00  0.00000000E+00  0.00000000E+00
  0.00000000E+00  0.00000000E+00  0.00000000E+00
  0.00000000E+00  0.00000000E+00  0.00000000E+00
  0.00000000E+00  0.00000000E+00  0.00000000E+00
  0.00000000E+00  0.00000000E+00  0.00000000E+00
  0.00000000E+00  0.00000000E+00  0.00000000E+00
  0.00000000E+00  0.00000000E+00  0.00000000E+00
  0.00000000E+00  0.00000000E+00  0.00000000E+00
  0.00000000E+00  0.00000000E+00  0.00000000E+00
  0.00000000E+00  0.00000000E+00  0.00000000E+00
  0.00000000E+00  0.00000000E+00  0.00000000E+00
  0.00000000E+00  0.00000000E+00  0.00000000E+00
  0.00000000E+00  0.00000000E+00  0.00000000E+00
  0.00000000E+00  0.00000000E+00  0.00000000E+00
  0.00000000E+00  0.00000000E+00  0.00000000E+00
  0.00000000E+00  0.00000000E+00  0.00000000E+00
  0.00000000E+00  0.00000000E+00  0.00000000E+00
  0.00000000E+00  0.00000000E+00  0.00000000E+00
  0.00000000E+00  0.00000000E+00  0.00000000E+00
  0.00000000E+00  0.00000000E+00  0.00000000E+00
  0.00000000E+00  0.00000000E+00  0.00000000E+00
  0.00000000E+00  0.00000000E+00  0.00000000E+00
  0.00000000E+00  0.00000000E+00  0.00000000E+00
  0.00000000E+00  0.00000000E+00  0.00000000E+00
  0.00000000E+00  0.00000000E+00  0.00000000E+00
  0.00000000E+00  0.00000000E+00  0.00000000E+00
