Nb Mo Ta Ti  V                          
   1.00000000000000     
    -3.1257817157354095   -3.0920116335812993   -3.1017119478780315
     1.5902999495013066    1.6742871593363853   -7.9098111004555891
     7.8721507443901544   -7.8454232373530814   -1.4928769132509208
   Nb   Mo   Ta   Ti   V 
     6     6     5     6     6
Direct
  0.9648227930624154  0.9311458269727001  0.3918769834555045
  0.6220374203259343  0.2587793719332703  0.3895556911749600
  0.5040699405275879  0.0131529740481917  0.0085654792904363
  0.0034763275539266  0.0127003571539802  0.0073366259470698
  0.0944280714028641  0.2056636289286483  0.7977808326673289
  0.0276383487226639  0.0707309638671478  0.5967665065002528
  0.9007368352276786  0.7937353567458927  0.2024496260818843
  0.8022366949446071  0.5892563583004835  0.3986921102201039
  0.7400006266412755  0.4612365715128298  0.1961027712553745
  0.6502977762303913  0.3486652399633123 -0.0025169656386269
  0.3678020968871603  0.7240462289563517  0.6027572778094680
  0.1200226620292038  0.2702605692660188  0.4026142319135917
  0.8335132502716807  0.6681807091903516  0.0037933338866124
  0.9182159331899569  0.8786730473850803  0.8010883829083774
  0.3993349119352915  0.7833985814595642  0.1983542182948484
  0.4343938425545558  0.8581995832883201  0.7991359948064020
  0.2999749649447886  0.5939495292901054  0.4018174629272512
  0.8549382678130454  0.7262933889860466  0.5995000241494246
  0.4691447192915967  0.9238454653757880  0.4079047083545870
  0.1542886787431614  0.3490372071111963 -0.0060564888727628
  0.2754337632412181  0.5378276880381327  0.7920968177626826
  0.2016077623633315  0.3880080248595895  0.5963816543407842
  0.1314239370964049  0.1474129593203456  0.2070521939987933
  0.7647331512421235  0.5253308851119366  0.8021275013829687
  0.6833572088387893  0.4089344870608286  0.6074337862575128
  0.5941736458672915  0.2126802368993195  0.7955358460879677
  0.5428451351378228  0.0688048112486633  0.6044291025563093
  0.3421497956331387  0.6524712498521459 -0.0007407948275065
  0.2362347682801043  0.4642453678737531  0.1981650853083973
 
  0.00000000E+00  0.00000000E+00  0.00000000E+00
  0.00000000E+00  0.00000000E+00  0.00000000E+00
  0.00000000E+00  0.00000000E+00  0.00000000E+00
  0.00000000E+00  0.00000000E+00  0.00000000E+00
  0.00000000E+00  0.00000000E+00  0.00000000E+00
  0.00000000E+00  0.00000000E+00  0.00000000E+00
  0.00000000E+00  0.00000000E+00  0.00000000E+00
  0.00000000E+00  0.00000000E+00  0.00000000E+00
  0.00000000E+00  0.00000000E+00  0.00000000E+00
  0.00000000E+00  0.00000000E+00  0.00000000E+00
  0.00000000E+00  0.00000000E+00  0.00000000E+00
  0.00000000E+00  0.00000000E+00  0.00000000E+00
  0.00000000E+00  0.00000000E+00  0.00000000E+00
  0.00000000E+00  0.00000000E+00  0.00000000E+00
  0.00000000E+00  0.00000000E+00  0.00000000E+00
  0.00000000E+00  0.00000000E+00  0.00000000E+00
  0.00000000E+00  0.00000000E+00  0.00000000E+00
  0.00000000E+00  0.00000000E+00  0.00000000E+00
  0.00000000E+00  0.00000000E+00  0.00000000E+00
  0.00000000E+00  0.00000000E+00  0.00000000E+00
  0.00000000E+00  0.00000000E+00  0.00000000E+00
  0.00000000E+00  0.00000000E+00  0.00000000E+00
  0.00000000E+00  0.00000000E+00  0.00000000E+00
  0.00000000E+00  0.00000000E+00  0.00000000E+00
  0.00000000E+00  0.00000000E+00  0.00000000E+00
  0.00000000E+00  0.00000000E+00  0.00000000E+00
  0.00000000E+00  0.00000000E+00  0.00000000E+00
  0.00000000E+00  0.00000000E+00  0.00000000E+00
  0.00000000E+00  0.00000000E+00  0.00000000E+00
