Nb Mo Ta Ti  W                          
   1.00000000000000     
    -3.1926105745832860   -3.1443744660289941   -3.1685027242499832
     1.5488115278958461    1.6393502165283926   -7.9407669515174906
     7.9691978961139416   -7.9411155761894987   -1.4918673890840723
   Nb   Mo   Ta   Ti   W 
     6     6     6     6     5
Direct
  0.9611937423454466  0.9330821084374401  0.3942355500566302
  0.6279779718467839  0.2662495226054620  0.4008689754904869
  0.5101490779151536  0.0035781981984575 -0.0028835919828167
  0.0090545394424854 -0.0074692234473954  0.0032120355613844
  0.0975426134023741  0.2028631210048626  0.8005968259604986
  0.0391445862212935  0.0681596419729921  0.5971562256716353
  0.8990470661311022  0.7963156325456060  0.2024819384638616
  0.8023476150958576  0.5942394111351516  0.3978922100244650
  0.7327994261201465  0.4651121679427770  0.1979518896271659
  0.6587918010611553  0.3518804157107846 -0.0018466797558141
  0.3679611294536990  0.7267127584174730  0.6022171838701168
  0.1275786472998914  0.2727014309415193  0.4008668488117789
  0.8462830354832717  0.6637408751707478  0.0026877227453387
  0.9227425549546664  0.8726643383958286  0.7956927086768026
  0.5648404881983388  0.1345935986216213  0.1958745751976662
  0.4047034434490110  0.7858176533751672  0.1890949907434084
  0.4378266783829884  0.8523588257154968  0.8020737351689398
  0.3006643292761600  0.6027467833781809  0.4011049350172453
  0.8558489483308168  0.7340718845216859  0.5968266761648262
  0.4637846655772488  0.9283864451182148  0.4059782127836843
  0.1672821350254954  0.3302514823395677  0.0036927996529332
  0.2770997237708390  0.5348608867582112  0.8055007877606125
  0.1974589818782360  0.3958137171340523  0.5970190605254041
  0.0617711232480345  0.1449552777094570  0.2065459639852159
  0.7790315325448113  0.5271204181159259  0.8015453698183700
  0.6897022333260627  0.4087183762795824  0.6042638973058678
  0.5968681708708331  0.2045804040173141  0.7981344041493551
  0.5365959234802901  0.0679550053269462  0.6039802310838590
  0.2305744858674979  0.4712721725568582  0.1972345174210781
 
  0.00000000E+00  0.00000000E+00  0.00000000E+00
  0.00000000E+00  0.00000000E+00  0.00000000E+00
  0.00000000E+00  0.00000000E+00  0.00000000E+00
  0.00000000E+00  0.00000000E+00  0.00000000E+00
  0.00000000E+00  0.00000000E+00  0.00000000E+00
  0.00000000E+00  0.00000000E+00  0.00000000E+00
  0.00000000E+00  0.00000000E+00  0.00000000E+00
  0.00000000E+00  0.00000000E+00  0.00000000E+00
  0.00000000E+00  0.00000000E+00  0.00000000E+00
  0.00000000E+00  0.00000000E+00  0.00000000E+00
  0.00000000E+00  0.00000000E+00  0.00000000E+00
  0.00000000E+00  0.00000000E+00  0.00000000E+00
  0.00000000E+00  0.00000000E+00  0.00000000E+00
  0.00000000E+00  0.00000000E+00  0.00000000E+00
  0.00000000E+00  0.00000000E+00  0.00000000E+00
  0.00000000E+00  0.00000000E+00  0.00000000E+00
  0.00000000E+00  0.00000000E+00  0.00000000E+00
  0.00000000E+00  0.00000000E+00  0.00000000E+00
  0.00000000E+00  0.00000000E+00  0.00000000E+00
  0.00000000E+00  0.00000000E+00  0.00000000E+00
  0.00000000E+00  0.00000000E+00  0.00000000E+00
  0.00000000E+00  0.00000000E+00  0.00000000E+00
  0.00000000E+00  0.00000000E+00  0.00000000E+00
  0.00000000E+00  0.00000000E+00  0.00000000E+00
  0.00000000E+00  0.00000000E+00  0.00000000E+00
  0.00000000E+00  0.00000000E+00  0.00000000E+00
  0.00000000E+00  0.00000000E+00  0.00000000E+00
  0.00000000E+00  0.00000000E+00  0.00000000E+00
  0.00000000E+00  0.00000000E+00  0.00000000E+00
