Nb Mo Ta Ti  V                          
   1.00000000000000     
    -3.1748936992531758   -3.1227684894648773   -3.1865974694328263
     1.5115571877412797    1.5356308371823817   -7.8670511449072169
     7.9421139280017776   -7.8689727947649697   -1.5344641093356179
   Nb   Mo   Ta   Ti   V 
     6     6     6     6     5
Direct
  0.9533386188590252  0.9302598135906717  0.4013533659381913
  0.6301643641252832  0.2621897840538863  0.4021075784651886
  0.4911436735175757  0.0033271654442277 -0.0062092230353338
 -0.0120667238913530  0.0064303753959420 -0.0017155124760049
  0.0394420073649759  0.2564411213491929  0.7939785653245609
  0.0321660760342025  0.0704579136706668  0.6019541514613802
  0.8985289559729553  0.7943437595963343  0.2020532522146484
  0.8050956410573458  0.5896516162204634  0.4009880303420725
  0.7272652599576565  0.4684447918048708  0.1967071354201409
  0.6635225765802010  0.3398625827817832 -0.0012787939099869
  0.3657016514987957  0.7273061594004614  0.6007693454933436
  0.1269803242095867  0.2709556415253070  0.4004064153534943
  0.8200222910062177  0.6584908017425453 -0.0086079844039439
  0.9488289634507603  0.8640352610241560  0.8006993214676829
  0.5595117931831960  0.1309523758078966  0.1976382446882433
  0.3998940897375896  0.7922123003482315  0.1964989476712513
  0.4451743737799974  0.8663454099844496  0.7953975153986280
  0.3003315451240451  0.5979874371698785  0.4039890009701716
  0.8576978088473409  0.7073649016863057  0.6161335684261996
  0.4613662772591024  0.9272292713312624  0.4103139100419413
  0.1858607057481738  0.3416578225362167 -0.0014680926917893
  0.3946808371174442  0.5265377242333948  0.7969440964230661
  0.2245010787315202  0.3861380789754140  0.5970402229901710
  0.0538830431241934  0.1507536761258222  0.2032553557445292
  0.7053191366072230  0.3998073382489886  0.5994663560979822
  0.5800990843999287  0.1990481349483633  0.7922868243910290
  0.5401095421187427  0.0640904991957748  0.6100243297141621
  0.3146427697052186  0.6594601412169678  0.0023369326642159
  0.2201275647730689  0.4748847705905216  0.1969371398147684
 
  0.00000000E+00  0.00000000E+00  0.00000000E+00
  0.00000000E+00  0.00000000E+00  0.00000000E+00
  0.00000000E+00  0.00000000E+00  0.00000000E+00
  0.00000000E+00  0.00000000E+00  0.00000000E+00
  0.00000000E+00  0.00000000E+00  0.00000000E+00
  0.00000000E+00  0.00000000E+00  0.00000000E+00
  0.00000000E+00  0.00000000E+00  0.00000000E+00
  0.00000000E+00  0.00000000E+00  0.00000000E+00
  0.00000000E+00  0.00000000E+00  0.00000000E+00
  0.00000000E+00  0.00000000E+00  0.00000000E+00
  0.00000000E+00  0.00000000E+00  0.00000000E+00
  0.00000000E+00  0.00000000E+00  0.00000000E+00
  0.00000000E+00  0.00000000E+00  0.00000000E+00
  0.00000000E+00  0.00000000E+00  0.00000000E+00
  0.00000000E+00  0.00000000E+00  0.00000000E+00
  0.00000000E+00  0.00000000E+00  0.00000000E+00
  0.00000000E+00  0.00000000E+00  0.00000000E+00
  0.00000000E+00  0.00000000E+00  0.00000000E+00
  0.00000000E+00  0.00000000E+00  0.00000000E+00
  0.00000000E+00  0.00000000E+00  0.00000000E+00
  0.00000000E+00  0.00000000E+00  0.00000000E+00
  0.00000000E+00  0.00000000E+00  0.00000000E+00
  0.00000000E+00  0.00000000E+00  0.00000000E+00
  0.00000000E+00  0.00000000E+00  0.00000000E+00
  0.00000000E+00  0.00000000E+00  0.00000000E+00
  0.00000000E+00  0.00000000E+00  0.00000000E+00
  0.00000000E+00  0.00000000E+00  0.00000000E+00
  0.00000000E+00  0.00000000E+00  0.00000000E+00
  0.00000000E+00  0.00000000E+00  0.00000000E+00
