Nb Mo Ta Ti  W                          
   1.00000000000000     
    -3.1826175641665162   -3.1661042351868618   -3.1669230056645956
     1.6066164605639899    1.6199162967086016   -7.9693501648821732
     7.9380961491255606   -7.9058592821712477   -1.5742449245472780
   Nb   Mo   Ta   Ti   W 
     6     5     6     6     6
Direct
  0.9478106862206953  0.9331346893155770  0.3972684022673721
  0.6334933485505965  0.2678263727538541  0.4025630975807268
  0.5051770602612419  0.0019438173960801 -0.0031930487353162
  0.0052909814197991  0.0019898062095303  0.0021917035086847
  0.1007433774196212  0.2018940518323367  0.7974019809545845
  0.0483829093352652  0.0588975977582785  0.5969974037022365
  0.9075211434385674  0.7978214373999120  0.2034151793053706
  0.8120124421608746  0.5914772997074644  0.3978540785344943
  0.7357388540477515  0.4674816295364085  0.2009312866405319
  0.6659497904185511  0.3410711704090014 -0.0024652393140267
  0.1356072561202823  0.2697585209589800  0.4010934823334090
  0.8380607047669427  0.6647795802274254  0.0019148056942600
  0.9208327503627061  0.8684430193295570  0.7984948057145700
  0.5694186493645330  0.1351373610481624  0.1970441596225055
  0.4085966752829436  0.7936685231298554  0.2018247842675160
  0.4349822294245866  0.8550308033920587  0.7941015288973096
  0.3061849496924051  0.6055739912162529  0.4112480995640841
  0.8013850496162143  0.7307032373660328  0.5969591411837430
  0.4590009213746041  0.9297423432350604  0.4083097937163118
  0.1778196789333823  0.3356193805513415  0.0008414736729034
  0.2782216417695627  0.5409495646943118  0.7879166044006235
  0.1880008437754132  0.3914405480715227  0.5965314552329627
  0.0679344966112135  0.1453618489313746  0.2086232467474995
  0.7767343837627514  0.5249698048711873  0.8004488362854772
  0.6903330255482732  0.4080822257315178  0.6031391672745218
  0.5998661332138229  0.2036493893972707  0.7963315892815466
  0.5439268728422623  0.0704331629085751  0.6022936963477301
  0.3386189836338657  0.6589519131085270 -0.0008965265513329
  0.2356874906312638  0.4708335795125280  0.2008150118696991
 
  0.00000000E+00  0.00000000E+00  0.00000000E+00
  0.00000000E+00  0.00000000E+00  0.00000000E+00
  0.00000000E+00  0.00000000E+00  0.00000000E+00
  0.00000000E+00  0.00000000E+00  0.00000000E+00
  0.00000000E+00  0.00000000E+00  0.00000000E+00
  0.00000000E+00  0.00000000E+00  0.00000000E+00
  0.00000000E+00  0.00000000E+00  0.00000000E+00
  0.00000000E+00  0.00000000E+00  0.00000000E+00
  0.00000000E+00  0.00000000E+00  0.00000000E+00
  0.00000000E+00  0.00000000E+00  0.00000000E+00
  0.00000000E+00  0.00000000E+00  0.00000000E+00
  0.00000000E+00  0.00000000E+00  0.00000000E+00
  0.00000000E+00  0.00000000E+00  0.00000000E+00
  0.00000000E+00  0.00000000E+00  0.00000000E+00
  0.00000000E+00  0.00000000E+00  0.00000000E+00
  0.00000000E+00  0.00000000E+00  0.00000000E+00
  0.00000000E+00  0.00000000E+00  0.00000000E+00
  0.00000000E+00  0.00000000E+00  0.00000000E+00
  0.00000000E+00  0.00000000E+00  0.00000000E+00
  0.00000000E+00  0.00000000E+00  0.00000000E+00
  0.00000000E+00  0.00000000E+00  0.00000000E+00
  0.00000000E+00  0.00000000E+00  0.00000000E+00
  0.00000000E+00  0.00000000E+00  0.00000000E+00
  0.00000000E+00  0.00000000E+00  0.00000000E+00
  0.00000000E+00  0.00000000E+00  0.00000000E+00
  0.00000000E+00  0.00000000E+00  0.00000000E+00
  0.00000000E+00  0.00000000E+00  0.00000000E+00
  0.00000000E+00  0.00000000E+00  0.00000000E+00
  0.00000000E+00  0.00000000E+00  0.00000000E+00
