Nb Mo Ta Ti  W                          
   1.00000000000000     
    -3.1663708517484501   -3.1598491571700422   -3.1443397268839264
     1.5995636470466374    1.6587653955235149   -7.9562146103635092
     7.9153731396793692   -7.9353149194575812   -1.5359041940596387
   Nb   Mo   Ta   Ti   W 
     6     6     6     5     6
Direct
  0.9472323141532564  0.9313152766366034  0.3980955768477300
  0.6350734194244615  0.2708680011587917  0.4014744640003765
  0.5012132504859731  0.0010728502137473  0.0001642198665271
 -0.0004681020001485  0.0016018848718627  0.0040155966626264
  0.1005920637016941  0.2031742942089564  0.7965574640527471
  0.0391582174302568  0.0656685481756650  0.5945676417993722
  0.9072626966278765  0.7962090921512421  0.2029089036267653
  0.7972782686743124  0.6022732257052811  0.3978686984501789
  0.7314441072677226  0.4675253189846029  0.2011242272816434
  0.6642900641915491  0.3390079433529659 -0.0017991805551448
  0.3724979240937569  0.7319529385329457  0.5946186067811710
  0.1386631306636504  0.2647947790030491  0.3993288387868432
  0.8334192135260147  0.6648893451891066  0.0032960953650520
  0.9313867551094830  0.8711850851583159  0.7983355873784490
  0.5589567354309548  0.1282875023608486  0.2054504925309436
  0.4075441186778485  0.8001365537930529  0.2082541927674445
  0.4393326791455018  0.8576097381742126  0.7943153547651900
  0.2958328189280848  0.6001614662478181  0.4034303757863666
  0.8685024130958773  0.7280422575624056  0.6001972478834275
  0.1740297356888872  0.3351448591580248  0.0029579276969069
  0.2694927378762598  0.5318659347255164  0.7984702120219920
  0.1996871749984390  0.3938111449075017  0.5939637338464880
  0.0499283747365880  0.1489021416280957  0.2064673011132784
  0.7693108374195854  0.5282542479447150  0.7992472226491745
  0.6942445374519135  0.4080537406537119  0.6010631565192776
  0.5984731155129317  0.2021873749081564  0.7965724386252568
  0.5412222297777376  0.0648053946687676  0.5968004232985119
  0.3359112035003790  0.6587469920484942  0.0011448963592625
  0.2318212944091429  0.4691187378755319  0.2011082837921440
 
  0.00000000E+00  0.00000000E+00  0.00000000E+00
  0.00000000E+00  0.00000000E+00  0.00000000E+00
  0.00000000E+00  0.00000000E+00  0.00000000E+00
  0.00000000E+00  0.00000000E+00  0.00000000E+00
  0.00000000E+00  0.00000000E+00  0.00000000E+00
  0.00000000E+00  0.00000000E+00  0.00000000E+00
  0.00000000E+00  0.00000000E+00  0.00000000E+00
  0.00000000E+00  0.00000000E+00  0.00000000E+00
  0.00000000E+00  0.00000000E+00  0.00000000E+00
  0.00000000E+00  0.00000000E+00  0.00000000E+00
  0.00000000E+00  0.00000000E+00  0.00000000E+00
  0.00000000E+00  0.00000000E+00  0.00000000E+00
  0.00000000E+00  0.00000000E+00  0.00000000E+00
  0.00000000E+00  0.00000000E+00  0.00000000E+00
  0.00000000E+00  0.00000000E+00  0.00000000E+00
  0.00000000E+00  0.00000000E+00  0.00000000E+00
  0.00000000E+00  0.00000000E+00  0.00000000E+00
  0.00000000E+00  0.00000000E+00  0.00000000E+00
  0.00000000E+00  0.00000000E+00  0.00000000E+00
  0.00000000E+00  0.00000000E+00  0.00000000E+00
  0.00000000E+00  0.00000000E+00  0.00000000E+00
  0.00000000E+00  0.00000000E+00  0.00000000E+00
  0.00000000E+00  0.00000000E+00  0.00000000E+00
  0.00000000E+00  0.00000000E+00  0.00000000E+00
  0.00000000E+00  0.00000000E+00  0.00000000E+00
  0.00000000E+00  0.00000000E+00  0.00000000E+00
  0.00000000E+00  0.00000000E+00  0.00000000E+00
  0.00000000E+00  0.00000000E+00  0.00000000E+00
  0.00000000E+00  0.00000000E+00  0.00000000E+00
