Nb Mo Ta Ti  V                          
   1.00000000000000     
    -3.1217369436426750   -3.0910459691404015   -3.1298096738045920
     1.6054610372770646    1.5550953491789841   -7.8791518493922821
     8.0617261965967515   -7.9466969780365808   -1.6040334248905852
   Nb   Mo   Ta   Ti   V 
     6     6     6     6     5
Direct
  0.9573223540805754  0.9342128205263039  0.3999535275255662
  0.6430665326168310  0.2643532904324435  0.3983014096416093
  0.4924254283044300  0.0035357766459245 -0.0073398139819202
 -0.0109491482456727  0.0071941441528314 -0.0008568371327372
  0.0931778589605696  0.2158089233792550  0.7897652380691105
  0.0142631439653734  0.0849986231857006  0.5954954902584086
  0.9038307480394669  0.7977450884051595  0.2015013808821358
  0.8047209165968966  0.5889575178401076  0.4006989969325863
  0.7304574477942459  0.4697376900911844  0.2000349630223932
  0.6560380365440507  0.3452028218468357 -0.0050068319180998
  0.3645468751340856  0.7255498621426445  0.6025671166775924
  0.1429942073736629  0.2760123493716161  0.3996844173162784
  0.8318534552196850  0.6657662097630010  0.0031439115309607
  0.9177075807703577  0.8769395127319507  0.7935036847517445
  0.5617618182278112  0.1372825663329520  0.1934710573170244
  0.4045770818910809  0.7953244331324134  0.1960269764941238
  0.4291042025625043  0.8554275067688611  0.7937638646704671
  0.2940871136702269  0.6041674587207766  0.4031663936254309
  0.8732385837767961  0.7126118250059679  0.6020462939377811
  0.4634959880854758  0.9261413573293721  0.4092395266670729
  0.1646047282544593  0.3398220677427592 -0.0013439388157349
  0.2475661220570489  0.5382338283032915  0.8021809369760142
  0.3352161116518868  0.3808416738414500  0.6034898786271933
  0.0569866121913061  0.1507431622928317  0.2054807321817002
  0.7471616610668890  0.5234889494118024  0.8169147108197536
  0.5919788975773651  0.1973042987672639  0.8013028624397353
  0.5276178059359320  0.0574919817095370  0.6041045214397428
  0.3361331174333494  0.6522563360396851 -0.0017953226169879
  0.2250147184633206  0.4728479240860720  0.2005048526610523
 
  0.00000000E+00  0.00000000E+00  0.00000000E+00
  0.00000000E+00  0.00000000E+00  0.00000000E+00
  0.00000000E+00  0.00000000E+00  0.00000000E+00
  0.00000000E+00  0.00000000E+00  0.00000000E+00
  0.00000000E+00  0.00000000E+00  0.00000000E+00
  0.00000000E+00  0.00000000E+00  0.00000000E+00
  0.00000000E+00  0.00000000E+00  0.00000000E+00
  0.00000000E+00  0.00000000E+00  0.00000000E+00
  0.00000000E+00  0.00000000E+00  0.00000000E+00
  0.00000000E+00  0.00000000E+00  0.00000000E+00
  0.00000000E+00  0.00000000E+00  0.00000000E+00
  0.00000000E+00  0.00000000E+00  0.00000000E+00
  0.00000000E+00  0.00000000E+00  0.00000000E+00
  0.00000000E+00  0.00000000E+00  0.00000000E+00
  0.00000000E+00  0.00000000E+00  0.00000000E+00
  0.00000000E+00  0.00000000E+00  0.00000000E+00
  0.00000000E+00  0.00000000E+00  0.00000000E+00
  0.00000000E+00  0.00000000E+00  0.00000000E+00
  0.00000000E+00  0.00000000E+00  0.00000000E+00
  0.00000000E+00  0.00000000E+00  0.00000000E+00
  0.00000000E+00  0.00000000E+00  0.00000000E+00
  0.00000000E+00  0.00000000E+00  0.00000000E+00
  0.00000000E+00  0.00000000E+00  0.00000000E+00
  0.00000000E+00  0.00000000E+00  0.00000000E+00
  0.00000000E+00  0.00000000E+00  0.00000000E+00
  0.00000000E+00  0.00000000E+00  0.00000000E+00
  0.00000000E+00  0.00000000E+00  0.00000000E+00
  0.00000000E+00  0.00000000E+00  0.00000000E+00
  0.00000000E+00  0.00000000E+00  0.00000000E+00
